generated by phonopy
   1.0
    17.0399999999999991    0.0000000000000000    0.0000000000000000
     0.0000000000000000    4.9190242934956201    0.0000000000000000
     0.0000000000000000    0.0000000000000000   10.0000000000000000
C
  32
Direct
  0.0004911420744790  0.0004911420744790  0.0004911420744790
  0.2500000000000000  0.0000000000000000  0.0000000000000000
  0.5000000000000000  0.0000000000000000  0.0000000000000000
  0.7500000000000000  0.0000000000000000  0.0000000000000000
  0.0000000000000000  0.5000000000000000  0.0000000000000000
  0.2500000000000000  0.5000000000000000  0.0000000000000000
  0.5000000000000000  0.5000000000000000  0.0000000000000000
  0.7500000000000000  0.5000000000000000  0.0000000000000000
  0.0833250000000000  0.0000000000000000  0.0000000000000000
  0.3333250000000000  0.0000000000000000  0.0000000000000000
  0.5833250000000000  0.0000000000000000  0.0000000000000000
  0.8333250000000000  0.0000000000000000  0.0000000000000000
  0.0833250000000000  0.5000000000000000  0.0000000000000000
  0.3333250000000000  0.5000000000000000  0.0000000000000000
  0.5833250000000000  0.5000000000000000  0.0000000000000000
  0.8333250000000000  0.5000000000000000  0.0000000000000000
  0.1250000000000000  0.2500000000000000  0.0000000000000000
  0.3750000000000000  0.2500000000000000  0.0000000000000000
  0.6249999999999999  0.2500000000000000  0.0000000000000000
  0.8750000000000000  0.2500000000000000  0.0000000000000000
  0.1250000000000000  0.7500000000000000  0.0000000000000000
  0.3750000000000000  0.7500000000000000  0.0000000000000000
  0.6249999999999999  0.7500000000000000  0.0000000000000000
  0.8750000000000000  0.7500000000000000  0.0000000000000000
  0.2083250000000000  0.2500000000000000  0.0000000000000000
  0.4583250000000000  0.2500000000000000  0.0000000000000000
  0.7083250000000000  0.2500000000000000  0.0000000000000000
  0.9583249999999999  0.2500000000000000  0.0000000000000000
  0.2083250000000000  0.7500000000000000  0.0000000000000000
  0.4583250000000000  0.7500000000000000  0.0000000000000000
  0.7083250000000000  0.7500000000000000  0.0000000000000000
  0.9583249999999999  0.7500000000000000  0.0000000000000000
