units metal
dimension 3
boundary p p p
atom_style atomic
lattice fcc 3.61
region box block 0 10 0 10 0 10
create_box 1 box
create_atoms 1 box
pair_style eam
pair_coeff * * Al99.eam.alloy Al
thermo 100
run 100
