generated by phonopy
   1.0
    12.7799999999999994    0.0000000000000000    0.0000000000000000
     0.0000000000000000    7.3785364402434297    0.0000000000000000
     0.0000000000000000    0.0000000000000000  120.0000000000000000
C
  36
Direct
  0.9999172897335260  0.9999172897335260  0.9999172897335260
  0.3333333333333333  0.0000000000000000  0.0000000000000000
  0.6666666666666666  0.0000000000000000  0.0000000000000000
  0.0000000000000000  0.3333333333333333  0.0000000000000000
  0.3333333333333333  0.3333333333333333  0.0000000000000000
  0.6666666666666666  0.3333333333333333  0.0000000000000000
  0.0000000000000000  0.6666666666666666  0.0000000000000000
  0.3333333333333333  0.6666666666666666  0.0000000000000000
  0.6666666666666666  0.6666666666666666  0.0000000000000000
  0.1111000000000000  0.0000000000000000  0.0000000000000000
  0.4444333333333333  0.0000000000000000  0.0000000000000000
  0.7777666666666666  0.0000000000000000  0.0000000000000000
  0.1111000000000000  0.3333333333333333  0.0000000000000000
  0.4444333333333333  0.3333333333333333  0.0000000000000000
  0.7777666666666666  0.3333333333333333  0.0000000000000000
  0.1111000000000000  0.6666666666666666  0.0000000000000000
  0.4444333333333333  0.6666666666666666  0.0000000000000000
  0.7777666666666666  0.6666666666666666  0.0000000000000000
  0.1666666666666667  0.1666666666666667  0.0000000000000000
  0.5000000000000000  0.1666666666666667  0.0000000000000000
  0.8333333333333333  0.1666666666666667  0.0000000000000000
  0.1666666666666667  0.5000000000000000  0.0000000000000000
  0.5000000000000000  0.5000000000000000  0.0000000000000000
  0.8333333333333333  0.5000000000000000  0.0000000000000000
  0.1666666666666667  0.8333333333333334  0.0000000000000000
  0.5000000000000000  0.8333333333333334  0.0000000000000000
  0.8333333333333333  0.8333333333333334  0.0000000000000000
  0.2777666666666667  0.1666666666666667  0.0000000000000000
  0.6111000000000000  0.1666666666666667  0.0000000000000000
  0.9444333333333332  0.1666666666666667  0.0000000000000000
  0.2777666666666667  0.5000000000000000  0.0000000000000000
  0.6111000000000000  0.5000000000000000  0.0000000000000000
  0.9444333333333332  0.5000000000000000  0.0000000000000000
  0.2777666666666667  0.8333333333333334  0.0000000000000000
  0.6111000000000000  0.8333333333333334  0.0000000000000000
  0.9444333333333332  0.8333333333333334  0.0000000000000000
