C 
 1.0000000000000000
     4.2599999999999998    0.0000000000000000    0.0000000000000000
     0.0000000000000000    2.4595121467478100    0.0000000000000000
     0.0000000000000000    0.0000000000000000  120.0000000000000000
 C  
   4
Cartesian
  0.0000000000000000  0.0000000000000000  0.0000000000000000
  1.4198579999999998  0.0000000000000000  0.0000000000000000
  2.1299999999999999  1.2297560733739050  0.0000000000000000
  3.5498580000000000  1.2297560733739050  0.0000000000000000
