generated by phonopy
   1.0
    51.1199999999999974    0.0000000000000000    0.0000000000000000
     0.0000000000000000   73.7853644024342969    0.0000000000000000
     0.0000000000000000    0.0000000000000000   10.0000000000000000
C
1440
Direct
  0.9998892814108530  0.9998892814108530  0.9998892814108530
  0.2500000000000000  0.0000000000000000  0.0000000000000000
  0.5000000000000000  0.0000000000000000  0.0000000000000000
  0.7500000000000000  0.0000000000000000  0.0000000000000000
  0.0277750000000000  0.0000000000000000  0.0000000000000000
  0.2777750000000000  0.0000000000000000  0.0000000000000000
  0.5277750000000000  0.0000000000000000  0.0000000000000000
  0.7777750000000001  0.0000000000000000  0.0000000000000000
  0.0416666666666667  0.0166666666666667  0.0000000000000000
  0.2916666666666667  0.0166666666666667  0.0000000000000000
  0.5416666666666666  0.0166666666666667  0.0000000000000000
  0.7916666666666667  0.0166666666666667  0.0000000000000000
  0.0694416666666667  0.0166666666666667  0.0000000000000000
  0.3194416666666667  0.0166666666666667  0.0000000000000000
  0.5694416666666666  0.0166666666666667  0.0000000000000000
  0.8194416666666666  0.0166666666666667  0.0000000000000000
  0.0833333333333333  0.0000000000000000  0.0000000000000000
  0.3333333333333333  0.0000000000000000  0.0000000000000000
  0.5833333333333334  0.0000000000000000  0.0000000000000000
  0.8333333333333334  0.0000000000000000  0.0000000000000000
  0.1111083333333333  0.0000000000000000  0.0000000000000000
  0.3611083333333333  0.0000000000000000  0.0000000000000000
  0.6111083333333334  0.0000000000000000  0.0000000000000000
  0.8611083333333334  0.0000000000000000  0.0000000000000000
  0.1250000000000000  0.0166666666666667  0.0000000000000000
  0.3750000000000000  0.0166666666666667  0.0000000000000000
  0.6250000000000000  0.0166666666666667  0.0000000000000000
  0.8750000000000000  0.0166666666666667  0.0000000000000000
  0.1527750000000000  0.0166666666666667  0.0000000000000000
  0.4027750000000000  0.0166666666666667  0.0000000000000000
  0.6527750000000001  0.0166666666666667  0.0000000000000000
  0.9027750000000000  0.0166666666666667  0.0000000000000000
  0.1666666666666667  0.0000000000000000  0.0000000000000000
  0.4166666666666666  0.0000000000000000  0.0000000000000000
  0.6666666666666666  0.0000000000000000  0.0000000000000000
  0.9166666666666666  0.0000000000000000  0.0000000000000000
  0.1944416666666667  0.0000000000000000  0.0000000000000000
  0.4444416666666666  0.0000000000000000  0.0000000000000000
  0.6944416666666666  0.0000000000000000  0.0000000000000000
  0.9444416666666666  0.0000000000000000  0.0000000000000000
  0.2083333333333333  0.0166666666666667  0.0000000000000000
  0.4583333333333333  0.0166666666666667  0.0000000000000000
  0.7083333333333333  0.0166666666666667  0.0000000000000000
  0.9583333333333333  0.0166666666666667  0.0000000000000000
  0.2361083333333333  0.0166666666666667  0.0000000000000000
  0.4861083333333334  0.0166666666666667  0.0000000000000000
  0.7361083333333334  0.0166666666666667  0.0000000000000000
  0.9861083333333334  0.0166666666666667  0.0000000000000000
  0.0000000000000000  0.0333333333333333  0.0000000000000000
  0.2500000000000000  0.0333333333333333  0.0000000000000000
  0.5000000000000000  0.0333333333333333  0.0000000000000000
  0.7500000000000000  0.0333333333333333  0.0000000000000000
  0.0277750000000000  0.0333333333333333  0.0000000000000000
  0.2777750000000000  0.0333333333333333  0.0000000000000000
  0.5277750000000000  0.0333333333333333  0.0000000000000000
  0.7777750000000001  0.0333333333333333  0.0000000000000000
  0.0416666666666667  0.0500000000000000  0.0000000000000000
  0.2916666666666667  0.0500000000000000  0.0000000000000000
  0.5416666666666666  0.0500000000000000  0.0000000000000000
  0.7916666666666667  0.0500000000000000  0.0000000000000000
  0.0694416666666667  0.0500000000000000  0.0000000000000000
  0.3194416666666667  0.0500000000000000  0.0000000000000000
  0.5694416666666666  0.0500000000000000  0.0000000000000000
  0.8194416666666666  0.0500000000000000  0.0000000000000000
  0.0833333333333333  0.0333333333333333  0.0000000000000000
  0.3333333333333333  0.0333333333333333  0.0000000000000000
  0.5833333333333334  0.0333333333333333  0.0000000000000000
  0.8333333333333334  0.0333333333333333  0.0000000000000000
  0.1111083333333333  0.0333333333333333  0.0000000000000000
  0.3611083333333333  0.0333333333333333  0.0000000000000000
  0.6111083333333334  0.0333333333333333  0.0000000000000000
  0.8611083333333334  0.0333333333333333  0.0000000000000000
  0.1250000000000000  0.0500000000000000  0.0000000000000000
  0.3750000000000000  0.0500000000000000  0.0000000000000000
  0.6250000000000000  0.0500000000000000  0.0000000000000000
  0.8750000000000000  0.0500000000000000  0.0000000000000000
  0.1527750000000000  0.0500000000000000  0.0000000000000000
  0.4027750000000000  0.0500000000000000  0.0000000000000000
  0.6527750000000001  0.0500000000000000  0.0000000000000000
  0.9027750000000000  0.0500000000000000  0.0000000000000000
  0.1666666666666667  0.0333333333333333  0.0000000000000000
  0.4166666666666666  0.0333333333333333  0.0000000000000000
  0.6666666666666666  0.0333333333333333  0.0000000000000000
  0.9166666666666666  0.0333333333333333  0.0000000000000000
  0.1944416666666667  0.0333333333333333  0.0000000000000000
  0.4444416666666666  0.0333333333333333  0.0000000000000000
  0.6944416666666666  0.0333333333333333  0.0000000000000000
  0.9444416666666666  0.0333333333333333  0.0000000000000000
  0.2083333333333333  0.0500000000000000  0.0000000000000000
  0.4583333333333333  0.0500000000000000  0.0000000000000000
  0.7083333333333333  0.0500000000000000  0.0000000000000000
  0.9583333333333333  0.0500000000000000  0.0000000000000000
  0.2361083333333333  0.0500000000000000  0.0000000000000000
  0.4861083333333334  0.0500000000000000  0.0000000000000000
  0.7361083333333334  0.0500000000000000  0.0000000000000000
  0.9861083333333334  0.0500000000000000  0.0000000000000000
  0.0000000000000000  0.0666666666666667  0.0000000000000000
  0.2500000000000000  0.0666666666666667  0.0000000000000000
  0.5000000000000000  0.0666666666666667  0.0000000000000000
  0.7500000000000000  0.0666666666666667  0.0000000000000000
  0.0277750000000000  0.0666666666666667  0.0000000000000000
  0.2777750000000000  0.0666666666666667  0.0000000000000000
  0.5277750000000000  0.0666666666666667  0.0000000000000000
  0.7777750000000001  0.0666666666666667  0.0000000000000000
  0.0416666666666667  0.0833333333333333  0.0000000000000000
  0.2916666666666667  0.0833333333333333  0.0000000000000000
  0.5416666666666666  0.0833333333333333  0.0000000000000000
  0.7916666666666667  0.0833333333333333  0.0000000000000000
  0.0694416666666667  0.0833333333333333  0.0000000000000000
  0.3194416666666667  0.0833333333333333  0.0000000000000000
  0.5694416666666666  0.0833333333333333  0.0000000000000000
  0.8194416666666666  0.0833333333333333  0.0000000000000000
  0.0833333333333333  0.0666666666666667  0.0000000000000000
  0.3333333333333333  0.0666666666666667  0.0000000000000000
  0.5833333333333334  0.0666666666666667  0.0000000000000000
  0.8333333333333334  0.0666666666666667  0.0000000000000000
  0.1111083333333333  0.0666666666666667  0.0000000000000000
  0.3611083333333333  0.0666666666666667  0.0000000000000000
  0.6111083333333334  0.0666666666666667  0.0000000000000000
  0.8611083333333334  0.0666666666666667  0.0000000000000000
  0.1250000000000000  0.0833333333333333  0.0000000000000000
  0.3750000000000000  0.0833333333333333  0.0000000000000000
  0.6250000000000000  0.0833333333333333  0.0000000000000000
  0.8750000000000000  0.0833333333333333  0.0000000000000000
  0.1527750000000000  0.0833333333333333  0.0000000000000000
  0.4027750000000000  0.0833333333333333  0.0000000000000000
  0.6527750000000001  0.0833333333333333  0.0000000000000000
  0.9027750000000000  0.0833333333333333  0.0000000000000000
  0.1666666666666667  0.0666666666666667  0.0000000000000000
  0.4166666666666666  0.0666666666666667  0.0000000000000000
  0.6666666666666666  0.0666666666666667  0.0000000000000000
  0.9166666666666666  0.0666666666666667  0.0000000000000000
  0.1944416666666667  0.0666666666666667  0.0000000000000000
  0.4444416666666666  0.0666666666666667  0.0000000000000000
  0.6944416666666666  0.0666666666666667  0.0000000000000000
  0.9444416666666666  0.0666666666666667  0.0000000000000000
  0.2083333333333333  0.0833333333333333  0.0000000000000000
  0.4583333333333333  0.0833333333333333  0.0000000000000000
  0.7083333333333333  0.0833333333333333  0.0000000000000000
  0.9583333333333333  0.0833333333333333  0.0000000000000000
  0.2361083333333333  0.0833333333333333  0.0000000000000000
  0.4861083333333334  0.0833333333333333  0.0000000000000000
  0.7361083333333334  0.0833333333333333  0.0000000000000000
  0.9861083333333334  0.0833333333333333  0.0000000000000000
  0.0000000000000000  0.1000000000000000  0.0000000000000000
  0.2500000000000000  0.1000000000000000  0.0000000000000000
  0.5000000000000000  0.1000000000000000  0.0000000000000000
  0.7500000000000000  0.1000000000000000  0.0000000000000000
  0.0277750000000000  0.1000000000000000  0.0000000000000000
  0.2777750000000000  0.1000000000000000  0.0000000000000000
  0.5277750000000000  0.1000000000000000  0.0000000000000000
  0.7777750000000001  0.1000000000000000  0.0000000000000000
  0.0416666666666667  0.1166666666666667  0.0000000000000000
  0.2916666666666667  0.1166666666666667  0.0000000000000000
  0.5416666666666666  0.1166666666666667  0.0000000000000000
  0.7916666666666667  0.1166666666666667  0.0000000000000000
  0.0694416666666667  0.1166666666666667  0.0000000000000000
  0.3194416666666667  0.1166666666666667  0.0000000000000000
  0.5694416666666666  0.1166666666666667  0.0000000000000000
  0.8194416666666666  0.1166666666666667  0.0000000000000000
  0.0833333333333333  0.1000000000000000  0.0000000000000000
  0.3333333333333333  0.1000000000000000  0.0000000000000000
  0.5833333333333334  0.1000000000000000  0.0000000000000000
  0.8333333333333334  0.1000000000000000  0.0000000000000000
  0.1111083333333333  0.1000000000000000  0.0000000000000000
  0.3611083333333333  0.1000000000000000  0.0000000000000000
  0.6111083333333334  0.1000000000000000  0.0000000000000000
  0.8611083333333334  0.1000000000000000  0.0000000000000000
  0.1250000000000000  0.1166666666666667  0.0000000000000000
  0.3750000000000000  0.1166666666666667  0.0000000000000000
  0.6250000000000000  0.1166666666666667  0.0000000000000000
  0.8750000000000000  0.1166666666666667  0.0000000000000000
  0.1527750000000000  0.1166666666666667  0.0000000000000000
  0.4027750000000000  0.1166666666666667  0.0000000000000000
  0.6527750000000001  0.1166666666666667  0.0000000000000000
  0.9027750000000000  0.1166666666666667  0.0000000000000000
  0.1666666666666667  0.1000000000000000  0.0000000000000000
  0.4166666666666666  0.1000000000000000  0.0000000000000000
  0.6666666666666666  0.1000000000000000  0.0000000000000000
  0.9166666666666666  0.1000000000000000  0.0000000000000000
  0.1944416666666667  0.1000000000000000  0.0000000000000000
  0.4444416666666666  0.1000000000000000  0.0000000000000000
  0.6944416666666666  0.1000000000000000  0.0000000000000000
  0.9444416666666666  0.1000000000000000  0.0000000000000000
  0.2083333333333333  0.1166666666666667  0.0000000000000000
  0.4583333333333333  0.1166666666666667  0.0000000000000000
  0.7083333333333333  0.1166666666666667  0.0000000000000000
  0.9583333333333333  0.1166666666666667  0.0000000000000000
  0.2361083333333333  0.1166666666666667  0.0000000000000000
  0.4861083333333334  0.1166666666666667  0.0000000000000000
  0.7361083333333334  0.1166666666666667  0.0000000000000000
  0.9861083333333334  0.1166666666666667  0.0000000000000000
  0.0000000000000000  0.1333333333333333  0.0000000000000000
  0.2500000000000000  0.1333333333333333  0.0000000000000000
  0.5000000000000000  0.1333333333333333  0.0000000000000000
  0.7500000000000000  0.1333333333333333  0.0000000000000000
  0.0277750000000000  0.1333333333333333  0.0000000000000000
  0.2777750000000000  0.1333333333333333  0.0000000000000000
  0.5277750000000000  0.1333333333333333  0.0000000000000000
  0.7777750000000001  0.1333333333333333  0.0000000000000000
  0.0416666666666667  0.1500000000000000  0.0000000000000000
  0.2916666666666667  0.1500000000000000  0.0000000000000000
  0.5416666666666666  0.1500000000000000  0.0000000000000000
  0.7916666666666667  0.1500000000000000  0.0000000000000000
  0.0694416666666667  0.1500000000000000  0.0000000000000000
  0.3194416666666667  0.1500000000000000  0.0000000000000000
  0.5694416666666666  0.1500000000000000  0.0000000000000000
  0.8194416666666666  0.1500000000000000  0.0000000000000000
  0.0833333333333333  0.1333333333333333  0.0000000000000000
  0.3333333333333333  0.1333333333333333  0.0000000000000000
  0.5833333333333334  0.1333333333333333  0.0000000000000000
  0.8333333333333334  0.1333333333333333  0.0000000000000000
  0.1111083333333333  0.1333333333333333  0.0000000000000000
  0.3611083333333333  0.1333333333333333  0.0000000000000000
  0.6111083333333334  0.1333333333333333  0.0000000000000000
  0.8611083333333334  0.1333333333333333  0.0000000000000000
  0.1250000000000000  0.1500000000000000  0.0000000000000000
  0.3750000000000000  0.1500000000000000  0.0000000000000000
  0.6250000000000000  0.1500000000000000  0.0000000000000000
  0.8750000000000000  0.1500000000000000  0.0000000000000000
  0.1527750000000000  0.1500000000000000  0.0000000000000000
  0.4027750000000000  0.1500000000000000  0.0000000000000000
  0.6527750000000001  0.1500000000000000  0.0000000000000000
  0.9027750000000000  0.1500000000000000  0.0000000000000000
  0.1666666666666667  0.1333333333333333  0.0000000000000000
  0.4166666666666666  0.1333333333333333  0.0000000000000000
  0.6666666666666666  0.1333333333333333  0.0000000000000000
  0.9166666666666666  0.1333333333333333  0.0000000000000000
  0.1944416666666667  0.1333333333333333  0.0000000000000000
  0.4444416666666666  0.1333333333333333  0.0000000000000000
  0.6944416666666666  0.1333333333333333  0.0000000000000000
  0.9444416666666666  0.1333333333333333  0.0000000000000000
  0.2083333333333333  0.1500000000000000  0.0000000000000000
  0.4583333333333333  0.1500000000000000  0.0000000000000000
  0.7083333333333333  0.1500000000000000  0.0000000000000000
  0.9583333333333333  0.1500000000000000  0.0000000000000000
  0.2361083333333333  0.1500000000000000  0.0000000000000000
  0.4861083333333334  0.1500000000000000  0.0000000000000000
  0.7361083333333334  0.1500000000000000  0.0000000000000000
  0.9861083333333334  0.1500000000000000  0.0000000000000000
  0.0000000000000000  0.1666666666666667  0.0000000000000000
  0.2500000000000000  0.1666666666666667  0.0000000000000000
  0.5000000000000000  0.1666666666666667  0.0000000000000000
  0.7500000000000000  0.1666666666666667  0.0000000000000000
  0.0277750000000000  0.1666666666666667  0.0000000000000000
  0.2777750000000000  0.1666666666666667  0.0000000000000000
  0.5277750000000000  0.1666666666666667  0.0000000000000000
  0.7777750000000001  0.1666666666666667  0.0000000000000000
  0.0416666666666667  0.1833333333333333  0.0000000000000000
  0.2916666666666667  0.1833333333333333  0.0000000000000000
  0.5416666666666666  0.1833333333333333  0.0000000000000000
  0.7916666666666667  0.1833333333333333  0.0000000000000000
  0.0694416666666667  0.1833333333333333  0.0000000000000000
  0.3194416666666667  0.1833333333333333  0.0000000000000000
  0.5694416666666666  0.1833333333333333  0.0000000000000000
  0.8194416666666666  0.1833333333333333  0.0000000000000000
  0.0833333333333333  0.1666666666666667  0.0000000000000000
  0.3333333333333333  0.1666666666666667  0.0000000000000000
  0.5833333333333334  0.1666666666666667  0.0000000000000000
  0.8333333333333334  0.1666666666666667  0.0000000000000000
  0.1111083333333333  0.1666666666666667  0.0000000000000000
  0.3611083333333333  0.1666666666666667  0.0000000000000000
  0.6111083333333334  0.1666666666666667  0.0000000000000000
  0.8611083333333334  0.1666666666666667  0.0000000000000000
  0.1250000000000000  0.1833333333333333  0.0000000000000000
  0.3750000000000000  0.1833333333333333  0.0000000000000000
  0.6250000000000000  0.1833333333333333  0.0000000000000000
  0.8750000000000000  0.1833333333333333  0.0000000000000000
  0.1527750000000000  0.1833333333333333  0.0000000000000000
  0.4027750000000000  0.1833333333333333  0.0000000000000000
  0.6527750000000001  0.1833333333333333  0.0000000000000000
  0.9027750000000000  0.1833333333333333  0.0000000000000000
  0.1666666666666667  0.1666666666666667  0.0000000000000000
  0.4166666666666666  0.1666666666666667  0.0000000000000000
  0.6666666666666666  0.1666666666666667  0.0000000000000000
  0.9166666666666666  0.1666666666666667  0.0000000000000000
  0.1944416666666667  0.1666666666666667  0.0000000000000000
  0.4444416666666666  0.1666666666666667  0.0000000000000000
  0.6944416666666666  0.1666666666666667  0.0000000000000000
  0.9444416666666666  0.1666666666666667  0.0000000000000000
  0.2083333333333333  0.1833333333333333  0.0000000000000000
  0.4583333333333333  0.1833333333333333  0.0000000000000000
  0.7083333333333333  0.1833333333333333  0.0000000000000000
  0.9583333333333333  0.1833333333333333  0.0000000000000000
  0.2361083333333333  0.1833333333333333  0.0000000000000000
  0.4861083333333334  0.1833333333333333  0.0000000000000000
  0.7361083333333334  0.1833333333333333  0.0000000000000000
  0.9861083333333334  0.1833333333333333  0.0000000000000000
  0.0000000000000000  0.2000000000000000  0.0000000000000000
  0.2500000000000000  0.2000000000000000  0.0000000000000000
  0.5000000000000000  0.2000000000000000  0.0000000000000000
  0.7500000000000000  0.2000000000000000  0.0000000000000000
  0.0277750000000000  0.2000000000000000  0.0000000000000000
  0.2777750000000000  0.2000000000000000  0.0000000000000000
  0.5277750000000000  0.2000000000000000  0.0000000000000000
  0.7777750000000001  0.2000000000000000  0.0000000000000000
  0.0416666666666667  0.2166666666666667  0.0000000000000000
  0.2916666666666667  0.2166666666666667  0.0000000000000000
  0.5416666666666666  0.2166666666666667  0.0000000000000000
  0.7916666666666667  0.2166666666666667  0.0000000000000000
  0.0694416666666667  0.2166666666666667  0.0000000000000000
  0.3194416666666667  0.2166666666666667  0.0000000000000000
  0.5694416666666666  0.2166666666666667  0.0000000000000000
  0.8194416666666666  0.2166666666666667  0.0000000000000000
  0.0833333333333333  0.2000000000000000  0.0000000000000000
  0.3333333333333333  0.2000000000000000  0.0000000000000000
  0.5833333333333334  0.2000000000000000  0.0000000000000000
  0.8333333333333334  0.2000000000000000  0.0000000000000000
  0.1111083333333333  0.2000000000000000  0.0000000000000000
  0.3611083333333333  0.2000000000000000  0.0000000000000000
  0.6111083333333334  0.2000000000000000  0.0000000000000000
  0.8611083333333334  0.2000000000000000  0.0000000000000000
  0.1250000000000000  0.2166666666666667  0.0000000000000000
  0.3750000000000000  0.2166666666666667  0.0000000000000000
  0.6250000000000000  0.2166666666666667  0.0000000000000000
  0.8750000000000000  0.2166666666666667  0.0000000000000000
  0.1527750000000000  0.2166666666666667  0.0000000000000000
  0.4027750000000000  0.2166666666666667  0.0000000000000000
  0.6527750000000001  0.2166666666666667  0.0000000000000000
  0.9027750000000000  0.2166666666666667  0.0000000000000000
  0.1666666666666667  0.2000000000000000  0.0000000000000000
  0.4166666666666666  0.2000000000000000  0.0000000000000000
  0.6666666666666666  0.2000000000000000  0.0000000000000000
  0.9166666666666666  0.2000000000000000  0.0000000000000000
  0.1944416666666667  0.2000000000000000  0.0000000000000000
  0.4444416666666666  0.2000000000000000  0.0000000000000000
  0.6944416666666666  0.2000000000000000  0.0000000000000000
  0.9444416666666666  0.2000000000000000  0.0000000000000000
  0.2083333333333333  0.2166666666666667  0.0000000000000000
  0.4583333333333333  0.2166666666666667  0.0000000000000000
  0.7083333333333333  0.2166666666666667  0.0000000000000000
  0.9583333333333333  0.2166666666666667  0.0000000000000000
  0.2361083333333333  0.2166666666666667  0.0000000000000000
  0.4861083333333334  0.2166666666666667  0.0000000000000000
  0.7361083333333334  0.2166666666666667  0.0000000000000000
  0.9861083333333334  0.2166666666666667  0.0000000000000000
  0.0000000000000000  0.2333333333333334  0.0000000000000000
  0.2500000000000000  0.2333333333333334  0.0000000000000000
  0.5000000000000000  0.2333333333333334  0.0000000000000000
  0.7500000000000000  0.2333333333333334  0.0000000000000000
  0.0277750000000000  0.2333333333333334  0.0000000000000000
  0.2777750000000000  0.2333333333333334  0.0000000000000000
  0.5277750000000000  0.2333333333333334  0.0000000000000000
  0.7777750000000001  0.2333333333333334  0.0000000000000000
  0.0416666666666667  0.2500000000000000  0.0000000000000000
  0.2916666666666667  0.2500000000000000  0.0000000000000000
  0.5416666666666666  0.2500000000000000  0.0000000000000000
  0.7916666666666667  0.2500000000000000  0.0000000000000000
  0.0694416666666667  0.2500000000000000  0.0000000000000000
  0.3194416666666667  0.2500000000000000  0.0000000000000000
  0.5694416666666666  0.2500000000000000  0.0000000000000000
  0.8194416666666666  0.2500000000000000  0.0000000000000000
  0.0833333333333333  0.2333333333333334  0.0000000000000000
  0.3333333333333333  0.2333333333333334  0.0000000000000000
  0.5833333333333334  0.2333333333333334  0.0000000000000000
  0.8333333333333334  0.2333333333333334  0.0000000000000000
  0.1111083333333333  0.2333333333333334  0.0000000000000000
  0.3611083333333333  0.2333333333333334  0.0000000000000000
  0.6111083333333334  0.2333333333333334  0.0000000000000000
  0.8611083333333334  0.2333333333333334  0.0000000000000000
  0.1250000000000000  0.2500000000000000  0.0000000000000000
  0.3750000000000000  0.2500000000000000  0.0000000000000000
  0.6250000000000000  0.2500000000000000  0.0000000000000000
  0.8750000000000000  0.2500000000000000  0.0000000000000000
  0.1527750000000000  0.2500000000000000  0.0000000000000000
  0.4027750000000000  0.2500000000000000  0.0000000000000000
  0.6527750000000001  0.2500000000000000  0.0000000000000000
  0.9027750000000000  0.2500000000000000  0.0000000000000000
  0.1666666666666667  0.2333333333333334  0.0000000000000000
  0.4166666666666666  0.2333333333333334  0.0000000000000000
  0.6666666666666666  0.2333333333333334  0.0000000000000000
  0.9166666666666666  0.2333333333333334  0.0000000000000000
  0.1944416666666667  0.2333333333333334  0.0000000000000000
  0.4444416666666666  0.2333333333333334  0.0000000000000000
  0.6944416666666666  0.2333333333333334  0.0000000000000000
  0.9444416666666666  0.2333333333333334  0.0000000000000000
  0.2083333333333333  0.2500000000000000  0.0000000000000000
  0.4583333333333333  0.2500000000000000  0.0000000000000000
  0.7083333333333333  0.2500000000000000  0.0000000000000000
  0.9583333333333333  0.2500000000000000  0.0000000000000000
  0.2361083333333333  0.2500000000000000  0.0000000000000000
  0.4861083333333334  0.2500000000000000  0.0000000000000000
  0.7361083333333334  0.2500000000000000  0.0000000000000000
  0.9861083333333334  0.2500000000000000  0.0000000000000000
  0.0000000000000000  0.2666666666666667  0.0000000000000000
  0.2500000000000000  0.2666666666666667  0.0000000000000000
  0.5000000000000000  0.2666666666666667  0.0000000000000000
  0.7500000000000000  0.2666666666666667  0.0000000000000000
  0.0277750000000000  0.2666666666666667  0.0000000000000000
  0.2777750000000000  0.2666666666666667  0.0000000000000000
  0.5277750000000000  0.2666666666666667  0.0000000000000000
  0.7777750000000001  0.2666666666666667  0.0000000000000000
  0.0416666666666667  0.2833333333333334  0.0000000000000000
  0.2916666666666667  0.2833333333333334  0.0000000000000000
  0.5416666666666666  0.2833333333333334  0.0000000000000000
  0.7916666666666667  0.2833333333333334  0.0000000000000000
  0.0694416666666667  0.2833333333333334  0.0000000000000000
  0.3194416666666667  0.2833333333333334  0.0000000000000000
  0.5694416666666666  0.2833333333333334  0.0000000000000000
  0.8194416666666666  0.2833333333333334  0.0000000000000000
  0.0833333333333333  0.2666666666666667  0.0000000000000000
  0.3333333333333333  0.2666666666666667  0.0000000000000000
  0.5833333333333334  0.2666666666666667  0.0000000000000000
  0.8333333333333334  0.2666666666666667  0.0000000000000000
  0.1111083333333333  0.2666666666666667  0.0000000000000000
  0.3611083333333333  0.2666666666666667  0.0000000000000000
  0.6111083333333334  0.2666666666666667  0.0000000000000000
  0.8611083333333334  0.2666666666666667  0.0000000000000000
  0.1250000000000000  0.2833333333333334  0.0000000000000000
  0.3750000000000000  0.2833333333333334  0.0000000000000000
  0.6250000000000000  0.2833333333333334  0.0000000000000000
  0.8750000000000000  0.2833333333333334  0.0000000000000000
  0.1527750000000000  0.2833333333333334  0.0000000000000000
  0.4027750000000000  0.2833333333333334  0.0000000000000000
  0.6527750000000001  0.2833333333333334  0.0000000000000000
  0.9027750000000000  0.2833333333333334  0.0000000000000000
  0.1666666666666667  0.2666666666666667  0.0000000000000000
  0.4166666666666666  0.2666666666666667  0.0000000000000000
  0.6666666666666666  0.2666666666666667  0.0000000000000000
  0.9166666666666666  0.2666666666666667  0.0000000000000000
  0.1944416666666667  0.2666666666666667  0.0000000000000000
  0.4444416666666666  0.2666666666666667  0.0000000000000000
  0.6944416666666666  0.2666666666666667  0.0000000000000000
  0.9444416666666666  0.2666666666666667  0.0000000000000000
  0.2083333333333333  0.2833333333333334  0.0000000000000000
  0.4583333333333333  0.2833333333333334  0.0000000000000000
  0.7083333333333333  0.2833333333333334  0.0000000000000000
  0.9583333333333333  0.2833333333333334  0.0000000000000000
  0.2361083333333333  0.2833333333333334  0.0000000000000000
  0.4861083333333334  0.2833333333333334  0.0000000000000000
  0.7361083333333334  0.2833333333333334  0.0000000000000000
  0.9861083333333334  0.2833333333333334  0.0000000000000000
  0.0000000000000000  0.3000000000000000  0.0000000000000000
  0.2500000000000000  0.3000000000000000  0.0000000000000000
  0.5000000000000000  0.3000000000000000  0.0000000000000000
  0.7500000000000000  0.3000000000000000  0.0000000000000000
  0.0277750000000000  0.3000000000000000  0.0000000000000000
  0.2777750000000000  0.3000000000000000  0.0000000000000000
  0.5277750000000000  0.3000000000000000  0.0000000000000000
  0.7777750000000001  0.3000000000000000  0.0000000000000000
  0.0416666666666667  0.3166666666666667  0.0000000000000000
  0.2916666666666667  0.3166666666666667  0.0000000000000000
  0.5416666666666666  0.3166666666666667  0.0000000000000000
  0.7916666666666667  0.3166666666666667  0.0000000000000000
  0.0694416666666667  0.3166666666666667  0.0000000000000000
  0.3194416666666667  0.3166666666666667  0.0000000000000000
  0.5694416666666666  0.3166666666666667  0.0000000000000000
  0.8194416666666666  0.3166666666666667  0.0000000000000000
  0.0833333333333333  0.3000000000000000  0.0000000000000000
  0.3333333333333333  0.3000000000000000  0.0000000000000000
  0.5833333333333334  0.3000000000000000  0.0000000000000000
  0.8333333333333334  0.3000000000000000  0.0000000000000000
  0.1111083333333333  0.3000000000000000  0.0000000000000000
  0.3611083333333333  0.3000000000000000  0.0000000000000000
  0.6111083333333334  0.3000000000000000  0.0000000000000000
  0.8611083333333334  0.3000000000000000  0.0000000000000000
  0.1250000000000000  0.3166666666666667  0.0000000000000000
  0.3750000000000000  0.3166666666666667  0.0000000000000000
  0.6250000000000000  0.3166666666666667  0.0000000000000000
  0.8750000000000000  0.3166666666666667  0.0000000000000000
  0.1527750000000000  0.3166666666666667  0.0000000000000000
  0.4027750000000000  0.3166666666666667  0.0000000000000000
  0.6527750000000001  0.3166666666666667  0.0000000000000000
  0.9027750000000000  0.3166666666666667  0.0000000000000000
  0.1666666666666667  0.3000000000000000  0.0000000000000000
  0.4166666666666666  0.3000000000000000  0.0000000000000000
  0.6666666666666666  0.3000000000000000  0.0000000000000000
  0.9166666666666666  0.3000000000000000  0.0000000000000000
  0.1944416666666667  0.3000000000000000  0.0000000000000000
  0.4444416666666666  0.3000000000000000  0.0000000000000000
  0.6944416666666666  0.3000000000000000  0.0000000000000000
  0.9444416666666666  0.3000000000000000  0.0000000000000000
  0.2083333333333333  0.3166666666666667  0.0000000000000000
  0.4583333333333333  0.3166666666666667  0.0000000000000000
  0.7083333333333333  0.3166666666666667  0.0000000000000000
  0.9583333333333333  0.3166666666666667  0.0000000000000000
  0.2361083333333333  0.3166666666666667  0.0000000000000000
  0.4861083333333334  0.3166666666666667  0.0000000000000000
  0.7361083333333334  0.3166666666666667  0.0000000000000000
  0.9861083333333334  0.3166666666666667  0.0000000000000000
  0.0000000000000000  0.3333333333333334  0.0000000000000000
  0.2500000000000000  0.3333333333333334  0.0000000000000000
  0.5000000000000000  0.3333333333333334  0.0000000000000000
  0.7500000000000000  0.3333333333333334  0.0000000000000000
  0.0277750000000000  0.3333333333333334  0.0000000000000000
  0.2777750000000000  0.3333333333333334  0.0000000000000000
  0.5277750000000000  0.3333333333333334  0.0000000000000000