C 
 1.0000000000000000
    12.7799999999999994    0.0000000000000000    0.0000000000000000
     0.0000000000000000   73.7853644024342969    0.0000000000000000
     0.0000000000000000    0.0000000000000000   10.0000000000000000
 C  
 360
Cartesian
  0.0000000000000000  0.0000000000000000  0.0000000000000000
  1.4198579999999998  0.0000000000000000  0.0000000000000000
  2.1299999999999999  1.2297560733739050  0.0000000000000000
  3.5498580000000000  1.2297560733739050  0.0000000000000000
  4.2599999999999998  0.0000000000000000  0.0000000000000000
  5.6798579999999994  0.0000000000000000  0.0000000000000000
  6.3899999999999997  1.2297560733739050  0.0000000000000000
  7.8098579999999993  1.2297560733739050  0.0000000000000000
  8.5199999999999996  0.0000000000000000  0.0000000000000000
  9.9398579999999992  0.0000000000000000  0.0000000000000000
 10.6499999999999986  1.2297560733739050  0.0000000000000000
 12.0698580000000000  1.2297560733739050  0.0000000000000000
  0.0000000000000000  2.4595121467478100  0.0000000000000000
  1.4198579999999998  2.4595121467478100  0.0000000000000000
  2.1299999999999999  3.6892682201217148  0.0000000000000000
  3.5498580000000000  3.6892682201217148  0.0000000000000000
  4.2599999999999998  2.4595121467478100  0.0000000000000000
  5.6798579999999994  2.4595121467478100  0.0000000000000000
  6.3899999999999997  3.6892682201217148  0.0000000000000000
  7.8098579999999993  3.6892682201217148  0.0000000000000000
  8.5199999999999996  2.4595121467478100  0.0000000000000000
  9.9398579999999992  2.4595121467478100  0.0000000000000000
 10.6499999999999986  3.6892682201217148  0.0000000000000000
 12.0698580000000000  3.6892682201217148  0.0000000000000000
  0.0000000000000000  4.9190242934956201  0.0000000000000000
  1.4198579999999998  4.9190242934956201  0.0000000000000000
  2.1299999999999999  6.1487803668695253  0.0000000000000000
  3.5498580000000000  6.1487803668695253  0.0000000000000000
  4.2599999999999998  4.9190242934956201  0.0000000000000000
  5.6798579999999994  4.9190242934956201  0.0000000000000000
  6.3899999999999997  6.1487803668695253  0.0000000000000000
  7.8098579999999993  6.1487803668695253  0.0000000000000000
  8.5199999999999996  4.9190242934956201  0.0000000000000000
  9.9398579999999992  4.9190242934956201  0.0000000000000000
 10.6499999999999986  6.1487803668695253  0.0000000000000000
 12.0698580000000000  6.1487803668695253  0.0000000000000000
  0.0000000000000000  7.3785364402434297  0.0000000000000000
  1.4198579999999998  7.3785364402434297  0.0000000000000000
  2.1299999999999999  8.6082925136173358  0.0000000000000000
  3.5498580000000000  8.6082925136173358  0.0000000000000000
  4.2599999999999998  7.3785364402434297  0.0000000000000000
  5.6798579999999994  7.3785364402434297  0.0000000000000000
  6.3899999999999997  8.6082925136173358  0.0000000000000000
  7.8098579999999993  8.6082925136173358  0.0000000000000000
  8.5199999999999996  7.3785364402434297  0.0000000000000000
  9.9398579999999992  7.3785364402434297  0.0000000000000000
 10.6499999999999986  8.6082925136173358  0.0000000000000000
 12.0698580000000000  8.6082925136173358  0.0000000000000000
  0.0000000000000000  9.8380485869912402  0.0000000000000000
  1.4198579999999998  9.8380485869912402  0.0000000000000000
  2.1299999999999999 11.0678046603651445  0.0000000000000000
  3.5498580000000000 11.0678046603651445  0.0000000000000000
  4.2599999999999998  9.8380485869912402  0.0000000000000000
  5.6798579999999994  9.8380485869912402  0.0000000000000000
  6.3899999999999997 11.0678046603651445  0.0000000000000000
  7.8098579999999993 11.0678046603651445  0.0000000000000000
  8.5199999999999996  9.8380485869912402  0.0000000000000000
  9.9398579999999992  9.8380485869912402  0.0000000000000000
 10.6499999999999986 11.0678046603651445  0.0000000000000000
 12.0698580000000000 11.0678046603651445  0.0000000000000000
  0.0000000000000000 12.2975607337390507  0.0000000000000000
  1.4198579999999998 12.2975607337390507  0.0000000000000000
  2.1299999999999999 13.5273168071129550  0.0000000000000000
  3.5498580000000000 13.5273168071129550  0.0000000000000000
  4.2599999999999998 12.2975607337390507  0.0000000000000000
  5.6798579999999994 12.2975607337390507  0.0000000000000000
  6.3899999999999997 13.5273168071129550  0.0000000000000000
  7.8098579999999993 13.5273168071129550  0.0000000000000000
  8.5199999999999996 12.2975607337390507  0.0000000000000000
  9.9398579999999992 12.2975607337390507  0.0000000000000000
 10.6499999999999986 13.5273168071129550  0.0000000000000000
 12.0698580000000000 13.5273168071129550  0.0000000000000000
  0.0000000000000000 14.7570728804868594  0.0000000000000000
  1.4198579999999998 14.7570728804868594  0.0000000000000000
  2.1299999999999999 15.9868289538607655  0.0000000000000000
  3.5498580000000000 15.9868289538607655  0.0000000000000000
  4.2599999999999998 14.7570728804868594  0.0000000000000000
  5.6798579999999994 14.7570728804868594  0.0000000000000000
  6.3899999999999997 15.9868289538607655  0.0000000000000000
  7.8098579999999993 15.9868289538607655  0.0000000000000000
  8.5199999999999996 14.7570728804868594  0.0000000000000000
  9.9398579999999992 14.7570728804868594  0.0000000000000000
 10.6499999999999986 15.9868289538607655  0.0000000000000000
 12.0698580000000000 15.9868289538607655  0.0000000000000000
  0.0000000000000000 17.2165850272346717  0.0000000000000000
  1.4198579999999998 17.2165850272346717  0.0000000000000000
  2.1299999999999999 18.4463411006085742  0.0000000000000000
  3.5498580000000000 18.4463411006085742  0.0000000000000000
  4.2599999999999998 17.2165850272346717  0.0000000000000000
  5.6798579999999994 17.2165850272346717  0.0000000000000000
  6.3899999999999997 18.4463411006085742  0.0000000000000000
  7.8098579999999993 18.4463411006085742  0.0000000000000000
  8.5199999999999996 17.2165850272346717  0.0000000000000000
  9.9398579999999992 17.2165850272346717  0.0000000000000000
 10.6499999999999986 18.4463411006085742  0.0000000000000000
 12.0698580000000000 18.4463411006085742  0.0000000000000000
  0.0000000000000000 19.6760971739824804  0.0000000000000000
  1.4198579999999998 19.6760971739824804  0.0000000000000000
  2.1299999999999999 20.9058532473563865  0.0000000000000000
  3.5498580000000000 20.9058532473563865  0.0000000000000000
  4.2599999999999998 19.6760971739824804  0.0000000000000000
  5.6798579999999994 19.6760971739824804  0.0000000000000000
  6.3899999999999997 20.9058532473563865  0.0000000000000000
  7.8098579999999993 20.9058532473563865  0.0000000000000000
  8.5199999999999996 19.6760971739824804  0.0000000000000000
  9.9398579999999992 19.6760971739824804  0.0000000000000000
 10.6499999999999986 20.9058532473563865  0.0000000000000000
 12.0698580000000000 20.9058532473563865  0.0000000000000000
  0.0000000000000000 22.1356093207302891  0.0000000000000000
  1.4198579999999998 22.1356093207302891  0.0000000000000000
  2.1299999999999999 23.3653653941041988  0.0000000000000000
  3.5498580000000000 23.3653653941041988  0.0000000000000000
  4.2599999999999998 22.1356093207302891  0.0000000000000000
  5.6798579999999994 22.1356093207302891  0.0000000000000000
  6.3899999999999997 23.3653653941041988  0.0000000000000000
  7.8098579999999993 23.3653653941041988  0.0000000000000000
  8.5199999999999996 22.1356093207302891  0.0000000000000000
  9.9398579999999992 22.1356093207302891  0.0000000000000000
 10.6499999999999986 23.3653653941041988  0.0000000000000000
 12.0698580000000000 23.3653653941041988  0.0000000000000000
  0.0000000000000000 24.5951214674781014  0.0000000000000000
  1.4198579999999998 24.5951214674781014  0.0000000000000000
  2.1299999999999999 25.8248775408520039  0.0000000000000000
  3.5498580000000000 25.8248775408520039  0.0000000000000000
  4.2599999999999998 24.5951214674781014  0.0000000000000000
  5.6798579999999994 24.5951214674781014  0.0000000000000000
  6.3899999999999997 25.8248775408520039  0.0000000000000000
  7.8098579999999993 25.8248775408520039  0.0000000000000000
  8.5199999999999996 24.5951214674781014  0.0000000000000000
  9.9398579999999992 24.5951214674781014  0.0000000000000000
 10.6499999999999986 25.8248775408520039  0.0000000000000000
 12.0698580000000000 25.8248775408520039  0.0000000000000000
  0.0000000000000000 27.0546336142259101  0.0000000000000000
  1.4198579999999998 27.0546336142259101  0.0000000000000000
  2.1299999999999999 28.2843896875998162  0.0000000000000000
  3.5498580000000000 28.2843896875998162  0.0000000000000000
  4.2599999999999998 27.0546336142259101  0.0000000000000000
  5.6798579999999994 27.0546336142259101  0.0000000000000000
  6.3899999999999997 28.2843896875998162  0.0000000000000000
  7.8098579999999993 28.2843896875998162  0.0000000000000000
  8.5199999999999996 27.0546336142259101  0.0000000000000000
  9.9398579999999992 27.0546336142259101  0.0000000000000000
 10.6499999999999986 28.2843896875998162  0.0000000000000000
 12.0698580000000000 28.2843896875998162  0.0000000000000000
  0.0000000000000000 29.5141457609737188  0.0000000000000000
  1.4198579999999998 29.5141457609737188  0.0000000000000000
  2.1299999999999999 30.7439018343476249  0.0000000000000000
  3.5498580000000000 30.7439018343476249  0.0000000000000000
  4.2599999999999998 29.5141457609737188  0.0000000000000000
  5.6798579999999994 29.5141457609737188  0.0000000000000000
  6.3899999999999997 30.7439018343476249  0.0000000000000000
  7.8098579999999993 30.7439018343476249  0.0000000000000000
  8.5199999999999996 29.5141457609737188  0.0000000000000000
  9.9398579999999992 29.5141457609737188  0.0000000000000000
 10.6499999999999986 30.7439018343476249  0.0000000000000000
 12.0698580000000000 30.7439018343476249  0.0000000000000000
  0.0000000000000000 31.9736579077215310  0.0000000000000000
  1.4198579999999998 31.9736579077215310  0.0000000000000000
  2.1299999999999999 33.2034139810954372  0.0000000000000000
  3.5498580000000000 33.2034139810954372  0.0000000000000000
  4.2599999999999998 31.9736579077215310  0.0000000000000000
  5.6798579999999994 31.9736579077215310  0.0000000000000000
  6.3899999999999997 33.2034139810954372  0.0000000000000000
  7.8098579999999993 33.2034139810954372  0.0000000000000000
  8.5199999999999996 31.9736579077215310  0.0000000000000000
  9.9398579999999992 31.9736579077215310  0.0000000000000000
 10.6499999999999986 33.2034139810954372  0.0000000000000000
 12.0698580000000000 33.2034139810954372  0.0000000000000000
  0.0000000000000000 34.4331700544693433  0.0000000000000000
  1.4198579999999998 34.4331700544693433  0.0000000000000000
  2.1299999999999999 35.6629261278432423  0.0000000000000000
  3.5498580000000000 35.6629261278432423  0.0000000000000000
  4.2599999999999998 34.4331700544693433  0.0000000000000000
  5.6798579999999994 34.4331700544693433  0.0000000000000000
  6.3899999999999997 35.6629261278432423  0.0000000000000000
  7.8098579999999993 35.6629261278432423  0.0000000000000000
  8.5199999999999996 34.4331700544693433  0.0000000000000000
  9.9398579999999992 34.4331700544693433  0.0000000000000000
 10.6499999999999986 35.6629261278432423  0.0000000000000000
 12.0698580000000000 35.6629261278432423  0.0000000000000000
  0.0000000000000000 36.8926822012171485  0.0000000000000000
  1.4198579999999998 36.8926822012171485  0.0000000000000000
  2.1299999999999999 38.1224382745910546  0.0000000000000000
  3.5498580000000000 38.1224382745910546  0.0000000000000000
  4.2599999999999998 36.8926822012171485  0.0000000000000000
  5.6798579999999994 36.8926822012171485  0.0000000000000000
  6.3899999999999997 38.1224382745910546  0.0000000000000000
  7.8098579999999993 38.1224382745910546  0.0000000000000000
  8.5199999999999996 36.8926822012171485  0.0000000000000000
  9.9398579999999992 36.8926822012171485  0.0000000000000000
 10.6499999999999986 38.1224382745910546  0.0000000000000000
 12.0698580000000000 38.1224382745910546  0.0000000000000000
  0.0000000000000000 39.3521943479649607  0.0000000000000000
  1.4198579999999998 39.3521943479649607  0.0000000000000000
  2.1299999999999999 40.5819504213388669  0.0000000000000000
  3.5498580000000000 40.5819504213388669  0.0000000000000000
  4.2599999999999998 39.3521943479649607  0.0000000000000000
  5.6798579999999994 39.3521943479649607  0.0000000000000000
  6.3899999999999997 40.5819504213388669  0.0000000000000000
  7.8098579999999993 40.5819504213388669  0.0000000000000000
  8.5199999999999996 39.3521943479649607  0.0000000000000000
  9.9398579999999992 39.3521943479649607  0.0000000000000000
 10.6499999999999986 40.5819504213388669  0.0000000000000000
 12.0698580000000000 40.5819504213388669  0.0000000000000000
  0.0000000000000000 41.8117064947127730  0.0000000000000000
  1.4198579999999998 41.8117064947127730  0.0000000000000000
  2.1299999999999999 43.0414625680866791  0.0000000000000000
  3.5498580000000000 43.0414625680866791  0.0000000000000000
  4.2599999999999998 41.8117064947127730  0.0000000000000000
  5.6798579999999994 41.8117064947127730  0.0000000000000000
  6.3899999999999997 43.0414625680866791  0.0000000000000000
  7.8098579999999993 43.0414625680866791  0.0000000000000000
  8.5199999999999996 41.8117064947127730  0.0000000000000000
  9.9398579999999992 41.8117064947127730  0.0000000000000000
 10.6499999999999986 43.0414625680866791  0.0000000000000000
 12.0698580000000000 43.0414625680866791  0.0000000000000000
  0.0000000000000000 44.2712186414605782  0.0000000000000000
  1.4198579999999998 44.2712186414605782  0.0000000000000000
  2.1299999999999999 45.5009747148344843  0.0000000000000000
  3.5498580000000000 45.5009747148344843  0.0000000000000000
  4.2599999999999998 44.2712186414605782  0.0000000000000000
  5.6798579999999994 44.2712186414605782  0.0000000000000000
  6.3899999999999997 45.5009747148344843  0.0000000000000000
  7.8098579999999993 45.5009747148344843  0.0000000000000000
  8.5199999999999996 44.2712186414605782  0.0000000000000000
  9.9398579999999992 44.2712186414605782  0.0000000000000000
 10.6499999999999986 45.5009747148344843  0.0000000000000000
 12.0698580000000000 45.5009747148344843  0.0000000000000000
  0.0000000000000000 46.7307307882083975  0.0000000000000000
  1.4198579999999998 46.7307307882083975  0.0000000000000000
  2.1299999999999999 47.9604868615822966  0.0000000000000000
  3.5498580000000000 47.9604868615822966  0.0000000000000000
  4.2599999999999998 46.7307307882083975  0.0000000000000000
  5.6798579999999994 46.7307307882083975  0.0000000000000000
  6.3899999999999997 47.9604868615822966  0.0000000000000000
  7.8098579999999993 47.9604868615822966  0.0000000000000000
  8.5199999999999996 46.7307307882083975  0.0000000000000000
  9.9398579999999992 46.7307307882083975  0.0000000000000000
 10.6499999999999986 47.9604868615822966  0.0000000000000000
 12.0698580000000000 47.9604868615822966  0.0000000000000000
  0.0000000000000000 49.1902429349562027  0.0000000000000000
  1.4198579999999998 49.1902429349562027  0.0000000000000000
  2.1299999999999999 50.4199990083301088  0.0000000000000000
  3.5498580000000000 50.4199990083301088  0.0000000000000000
  4.2599999999999998 49.1902429349562027  0.0000000000000000
  5.6798579999999994 49.1902429349562027  0.0000000000000000
  6.3899999999999997 50.4199990083301088  0.0000000000000000
  7.8098579999999993 50.4199990083301088  0.0000000000000000
  8.5199999999999996 49.1902429349562027  0.0000000000000000
  9.9398579999999992 49.1902429349562027  0.0000000000000000
 10.6499999999999986 50.4199990083301088  0.0000000000000000
 12.0698580000000000 50.4199990083301088  0.0000000000000000
  0.0000000000000000 51.6497550817040079  0.0000000000000000
  1.4198579999999998 51.6497550817040079  0.0000000000000000
  2.1299999999999999 52.8795111550779140  0.0000000000000000
  3.5498580000000000 52.8795111550779140  0.0000000000000000
  4.2599999999999998 51.6497550817040079  0.0000000000000000
  5.6798579999999994 51.6497550817040079  0.0000000000000000
  6.3899999999999997 52.8795111550779140  0.0000000000000000
  7.8098579999999993 52.8795111550779140  0.0000000000000000
  8.5199999999999996 51.6497550817040079  0.0000000000000000
  9.9398579999999992 51.6497550817040079  0.0000000000000000
 10.6499999999999986 52.8795111550779140  0.0000000000000000
 12.0698580000000000 52.8795111550779140  0.0000000000000000
  0.0000000000000000 54.1092672284518201  0.0000000000000000
  1.4198579999999998 54.1092672284518201  0.0000000000000000
  2.1299999999999999 55.3390233018257192  0.0000000000000000
  3.5498580000000000 55.3390233018257192  0.0000000000000000
  4.2599999999999998 54.1092672284518201  0.0000000000000000
  5.6798579999999994 54.1092672284518201  0.0000000000000000
  6.3899999999999997 55.3390233018257192  0.0000000000000000
  7.8098579999999993 55.3390233018257192  0.0000000000000000
  8.5199999999999996 54.1092672284518201  0.0000000000000000
  9.9398579999999992 54.1092672284518201  0.0000000000000000
 10.6499999999999986 55.3390233018257192  0.0000000000000000
 12.0698580000000000 55.3390233018257192  0.0000000000000000
  0.0000000000000000 56.5687793751996324  0.0000000000000000
  1.4198579999999998 56.5687793751996324  0.0000000000000000
  2.1299999999999999 57.7985354485735385  0.0000000000000000
  3.5498580000000000 57.7985354485735385  0.0000000000000000
  4.2599999999999998 56.5687793751996324  0.0000000000000000
  5.6798579999999994 56.5687793751996324  0.0000000000000000
  6.3899999999999997 57.7985354485735385  0.0000000000000000
  7.8098579999999993 57.7985354485735385  0.0000000000000000
  8.5199999999999996 56.5687793751996324  0.0000000000000000
  9.9398579999999992 56.5687793751996324  0.0000000000000000
 10.6499999999999986 57.7985354485735385  0.0000000000000000
 12.0698580000000000 57.7985354485735385  0.0000000000000000
  0.0000000000000000 59.0282915219474376  0.0000000000000000
  1.4198579999999998 59.0282915219474376  0.0000000000000000
  2.1299999999999999 60.2580475953213437  0.0000000000000000
  3.5498580000000000 60.2580475953213437  0.0000000000000000
  4.2599999999999998 59.0282915219474376  0.0000000000000000
  5.6798579999999994 59.0282915219474376  0.0000000000000000
  6.3899999999999997 60.2580475953213437  0.0000000000000000
  7.8098579999999993 60.2580475953213437  0.0000000000000000
  8.5199999999999996 59.0282915219474376  0.0000000000000000
  9.9398579999999992 59.0282915219474376  0.0000000000000000
 10.6499999999999986 60.2580475953213437  0.0000000000000000
 12.0698580000000000 60.2580475953213437  0.0000000000000000
  0.0000000000000000 61.4878036686952498  0.0000000000000000
  1.4198579999999998 61.4878036686952498  0.0000000000000000
  2.1299999999999999 62.7175597420691560  0.0000000000000000
  3.5498580000000000 62.7175597420691560  0.0000000000000000
  4.2599999999999998 61.4878036686952498  0.0000000000000000
  5.6798579999999994 61.4878036686952498  0.0000000000000000
  6.3899999999999997 62.7175597420691560  0.0000000000000000
  7.8098579999999993 62.7175597420691560  0.0000000000000000
  8.5199999999999996 61.4878036686952498  0.0000000000000000
  9.9398579999999992 61.4878036686952498  0.0000000000000000
 10.6499999999999986 62.7175597420691560  0.0000000000000000
 12.0698580000000000 62.7175597420691560  0.0000000000000000
  0.0000000000000000 63.9473158154430621  0.0000000000000000
  1.4198579999999998 63.9473158154430621  0.0000000000000000
  2.1299999999999999 65.1770718888169682  0.0000000000000000
  3.5498580000000000 65.1770718888169682  0.0000000000000000
  4.2599999999999998 63.9473158154430621  0.0000000000000000
  5.6798579999999994 63.9473158154430621  0.0000000000000000
  6.3899999999999997 65.1770718888169682  0.0000000000000000
  7.8098579999999993 65.1770718888169682  0.0000000000000000
  8.5199999999999996 63.9473158154430621  0.0000000000000000
  9.9398579999999992 63.9473158154430621  0.0000000000000000
 10.6499999999999986 65.1770718888169682  0.0000000000000000
 12.0698580000000000 65.1770718888169682  0.0000000000000000
  0.0000000000000000 66.4068279621908744  0.0000000000000000
  1.4198579999999998 66.4068279621908744  0.0000000000000000
  2.1299999999999999 67.6365840355647805  0.0000000000000000
  3.5498580000000000 67.6365840355647805  0.0000000000000000
  4.2599999999999998 66.4068279621908744  0.0000000000000000
  5.6798579999999994 66.4068279621908744  0.0000000000000000
  6.3899999999999997 67.6365840355647805  0.0000000000000000
  7.8098579999999993 67.6365840355647805  0.0000000000000000
  8.5199999999999996 66.4068279621908744  0.0000000000000000
  9.9398579999999992 66.4068279621908744  0.0000000000000000
 10.6499999999999986 67.6365840355647805  0.0000000000000000
 12.0698580000000000 67.6365840355647805  0.0000000000000000
  0.0000000000000000 68.8663401089386866  0.0000000000000000
  1.4198579999999998 68.8663401089386866  0.0000000000000000
  2.1299999999999999 70.0960961823125928  0.0000000000000000
  3.5498580000000000 70.0960961823125928  0.0000000000000000
  4.2599999999999998 68.8663401089386866  0.0000000000000000
  5.6798579999999994 68.8663401089386866  0.0000000000000000
  6.3899999999999997 70.0960961823125928  0.0000000000000000
  7.8098579999999993 70.0960961823125928  0.0000000000000000
  8.5199999999999996 68.8663401089386866  0.0000000000000000
  9.9398579999999992 68.8663401089386866  0.0000000000000000
 10.6499999999999986 70.0960961823125928  0.0000000000000000
 12.0698580000000000 70.0960961823125928  0.0000000000000000
  0.0000000000000000 71.3258522556864847  0.0000000000000000
  1.4198579999999998 71.3258522556864847  0.0000000000000000
  2.1299999999999999 72.5556083290603908  0.0000000000000000
  3.5498580000000000 72.5556083290603908  0.0000000000000000
  4.2599999999999998 71.3258522556864847  0.0000000000000000
  5.6798579999999994 71.3258522556864847  0.0000000000000000
  6.3899999999999997 72.5556083290603908  0.0000000000000000
  7.8098579999999993 72.5556083290603908  0.0000000000000000
  8.5199999999999996 71.3258522556864847  0.0000000000000000
  9.9398579999999992 71.3258522556864847  0.0000000000000000
 10.6499999999999986 72.5556083290603908  0.0000000000000000
 12.0698580000000000 72.5556083290603908  0.0000000000000000
