generated by phonopy
   1.0
    76.6800000000000068    0.0000000000000000    0.0000000000000000
     0.0000000000000000   24.5951214674781014    0.0000000000000000
     0.0000000000000000    0.0000000000000000   28.3999999999999986
C
 250
Direct
  0.3333333333333331  0.0000000000000000  0.0000000000000000
  0.3333333333333331  0.2000000000000000  0.0000000000000000
  0.3333333333333331  0.4000000000000000  0.0000000000000000
  0.3333333333333331  0.6000000000000001  0.0000000000000000
  0.3333333333333331  0.8000000000000000  0.0000000000000000
  0.3518499999999998  0.0000000000000000  0.0000000000000000
  0.3518499999999998  0.2000000000000000  0.0000000000000000
  0.3518499999999998  0.4000000000000000  0.0000000000000000
  0.3518499999999998  0.6000000000000001  0.0000000000000000
  0.3518499999999998  0.8000000000000000  0.0000000000000000
  0.3611111111111110  0.0500000000000000  0.0000000000000000
  0.3611111111111110  0.2500000000000000  0.0000000000000000
  0.3611111111111110  0.4500000000000000  0.0000000000000000
  0.3611111111111110  0.6500000000000000  0.0000000000000000
  0.3611111111111110  0.8500000000000001  0.0000000000000000
  0.3796277777777777  0.0500000000000000  0.0000000000000000
  0.3796277777777777  0.2500000000000000  0.0000000000000000
  0.3796277777777777  0.4500000000000000  0.0000000000000000
  0.3796277777777777  0.6500000000000000  0.0000000000000000
  0.3796277777777777  0.8500000000000001  0.0000000000000000
  0.3888888888888888  0.0000000000000000  0.0000000000000000
  0.3888888888888888  0.2000000000000000  0.0000000000000000
  0.3888888888888888  0.4000000000000000  0.0000000000000000
  0.3888888888888888  0.6000000000000001  0.0000000000000000
  0.3888888888888888  0.8000000000000000  0.0000000000000000
  0.4074055555555555  0.0000000000000000  0.0000000000000000
  0.4074055555555555  0.2000000000000000  0.0000000000000000
  0.4074055555555555  0.4000000000000000  0.0000000000000000
  0.4074055555555555  0.6000000000000001  0.0000000000000000
  0.4074055555555555  0.8000000000000000  0.0000000000000000
  0.4167837776006872  0.0501171109340207  0.0001171109340207
  0.4166666666666666  0.2500000000000000  0.0000000000000000
  0.4166666666666666  0.4500000000000000  0.0000000000000000
  0.4166666666666666  0.6500000000000000  0.0000000000000000
  0.4166666666666666  0.8500000000000001  0.0000000000000000
  0.4351833333333332  0.0500000000000000  0.0000000000000000
  0.4351833333333332  0.2500000000000000  0.0000000000000000
  0.4351833333333332  0.4500000000000000  0.0000000000000000
  0.4351833333333332  0.6500000000000000  0.0000000000000000
  0.4351833333333332  0.8500000000000001  0.0000000000000000
  0.4444444444444444  0.0000000000000000  0.0000000000000000
  0.4444444444444444  0.2000000000000000  0.0000000000000000
  0.4444444444444444  0.4000000000000000  0.0000000000000000
  0.4444444444444444  0.6000000000000001  0.0000000000000000
  0.4444444444444444  0.8000000000000000  0.0000000000000000
  0.4629611111111110  0.0000000000000000  0.0000000000000000
  0.4629611111111110  0.2000000000000000  0.0000000000000000
  0.4629611111111110  0.4000000000000000  0.0000000000000000
  0.4629611111111110  0.6000000000000001  0.0000000000000000
  0.4629611111111110  0.8000000000000000  0.0000000000000000
  0.4722222222222222  0.0500000000000000  0.0000000000000000
  0.4722222222222222  0.2500000000000000  0.0000000000000000
  0.4722222222222222  0.4500000000000000  0.0000000000000000
  0.4722222222222222  0.6500000000000000  0.0000000000000000
  0.4722222222222222  0.8500000000000001  0.0000000000000000
  0.4907388888888887  0.0500000000000000  0.0000000000000000
  0.4907388888888887  0.2500000000000000  0.0000000000000000
  0.4907388888888887  0.4500000000000000  0.0000000000000000
  0.4907388888888887  0.6500000000000000  0.0000000000000000
  0.4907388888888887  0.8500000000000001  0.0000000000000000
  0.4999999999999999  0.0000000000000000  0.0000000000000000
  0.4999999999999999  0.2000000000000000  0.0000000000000000
  0.4999999999999999  0.4000000000000000  0.0000000000000000
  0.4999999999999999  0.6000000000000001  0.0000000000000000
  0.4999999999999999  0.8000000000000000  0.0000000000000000
  0.5185166666666665  0.0000000000000000  0.0000000000000000
  0.5185166666666665  0.2000000000000000  0.0000000000000000
  0.5185166666666665  0.4000000000000000  0.0000000000000000
  0.5185166666666665  0.6000000000000001  0.0000000000000000
  0.5185166666666665  0.8000000000000000  0.0000000000000000
  0.5277777777777777  0.0500000000000000  0.0000000000000000
  0.5277777777777777  0.2500000000000000  0.0000000000000000
  0.5277777777777777  0.4500000000000000  0.0000000000000000
  0.5277777777777777  0.6500000000000000  0.0000000000000000
  0.5277777777777777  0.8500000000000001  0.0000000000000000
  0.5462944444444441  0.0500000000000000  0.0000000000000000
  0.5462944444444441  0.2500000000000000  0.0000000000000000
  0.5462944444444441  0.4500000000000000  0.0000000000000000
  0.5462944444444441  0.6500000000000000  0.0000000000000000
  0.5462944444444441  0.8500000000000001  0.0000000000000000
  0.5555555555555554  0.0000000000000000  0.0000000000000000
  0.5555555555555554  0.2000000000000000  0.0000000000000000
  0.5555555555555554  0.4000000000000000  0.0000000000000000
  0.5555555555555554  0.6000000000000001  0.0000000000000000
  0.5555555555555554  0.8000000000000000  0.0000000000000000
  0.5740722222222220  0.0000000000000000  0.0000000000000000
  0.5740722222222220  0.2000000000000000  0.0000000000000000
  0.5740722222222220  0.4000000000000000  0.0000000000000000
  0.5740722222222220  0.6000000000000001  0.0000000000000000
  0.5740722222222220  0.8000000000000000  0.0000000000000000
  0.5833333333333331  0.0500000000000000  0.0000000000000000
  0.5833333333333331  0.2500000000000000  0.0000000000000000
  0.5833333333333331  0.4500000000000000  0.0000000000000000
  0.5833333333333331  0.6500000000000000  0.0000000000000000
  0.5833333333333331  0.8500000000000001  0.0000000000000000
  0.6018499999999999  0.0500000000000000  0.0000000000000000
  0.6018499999999999  0.2500000000000000  0.0000000000000000
  0.6018499999999999  0.4500000000000000  0.0000000000000000
  0.6018499999999999  0.6500000000000000  0.0000000000000000
  0.6018499999999999  0.8500000000000001  0.0000000000000000
  0.6111111111111110  0.0000000000000000  0.0000000000000000
  0.6111111111111110  0.2000000000000000  0.0000000000000000
  0.6111111111111110  0.4000000000000000  0.0000000000000000
  0.6111111111111110  0.6000000000000001  0.0000000000000000
  0.6111111111111110  0.8000000000000000  0.0000000000000000
  0.6296277777777777  0.0000000000000000  0.0000000000000000
  0.6296277777777777  0.2000000000000000  0.0000000000000000
  0.6296277777777777  0.4000000000000000  0.0000000000000000
  0.6296277777777777  0.6000000000000001  0.0000000000000000
  0.6296277777777777  0.8000000000000000  0.0000000000000000
  0.6388888888888887  0.0500000000000000  0.0000000000000000
  0.6388888888888887  0.2500000000000000  0.0000000000000000
  0.6388888888888887  0.4500000000000000  0.0000000000000000
  0.6388888888888887  0.6500000000000000  0.0000000000000000
  0.6388888888888887  0.8500000000000001  0.0000000000000000
  0.6574055555555551  0.0500000000000000  0.0000000000000000
  0.6574055555555551  0.2500000000000000  0.0000000000000000
  0.6574055555555551  0.4500000000000000  0.0000000000000000
  0.6574055555555551  0.6500000000000000  0.0000000000000000
  0.6574055555555551  0.8500000000000001  0.0000000000000000
  0.6666666666666663  0.0000000000000000  0.0000000000000000
  0.6666666666666663  0.2000000000000000  0.0000000000000000
  0.6666666666666663  0.4000000000000000  0.0000000000000000
  0.6666666666666663  0.6000000000000001  0.0000000000000000
  0.6666666666666663  0.8000000000000000  0.0000000000000000
  0.3333333333333331  0.1000000000000000  0.0000000000000000
  0.3333333333333331  0.3000000000000000  0.0000000000000000
  0.3333333333333331  0.4999999999999999  0.0000000000000000
  0.3333333333333331  0.7000000000000000  0.0000000000000000
  0.3333333333333331  0.9000000000000000  0.0000000000000000
  0.3518499999999998  0.1000000000000000  0.0000000000000000
  0.3518499999999998  0.3000000000000000  0.0000000000000000
  0.3518499999999998  0.4999999999999999  0.0000000000000000
  0.3518499999999998  0.7000000000000000  0.0000000000000000
  0.3518499999999998  0.9000000000000000  0.0000000000000000
  0.3611111111111110  0.1500000000000000  0.0000000000000000
  0.3611111111111110  0.3500000000000000  0.0000000000000000
  0.3611111111111110  0.5500000000000000  0.0000000000000000
  0.3611111111111110  0.7500000000000000  0.0000000000000000
  0.3611111111111110  0.9500000000000001  0.0000000000000000
  0.3796277777777777  0.1500000000000000  0.0000000000000000
  0.3796277777777777  0.3500000000000000  0.0000000000000000
  0.3796277777777777  0.5500000000000000  0.0000000000000000
  0.3796277777777777  0.7500000000000000  0.0000000000000000
  0.3796277777777777  0.9500000000000001  0.0000000000000000
  0.3888888888888888  0.1000000000000000  0.0000000000000000
  0.3888888888888888  0.3000000000000000  0.0000000000000000
  0.3888888888888888  0.4999999999999999  0.0000000000000000
  0.3888888888888888  0.7000000000000000  0.0000000000000000
  0.3888888888888888  0.9000000000000000  0.0000000000000000
  0.4074055555555555  0.1000000000000000  0.0000000000000000
  0.4074055555555555  0.3000000000000000  0.0000000000000000
  0.4074055555555555  0.4999999999999999  0.0000000000000000
  0.4074055555555555  0.7000000000000000  0.0000000000000000
  0.4074055555555555  0.9000000000000000  0.0000000000000000
  0.4166666666666666  0.1500000000000000  0.0000000000000000
  0.4166666666666666  0.3500000000000000  0.0000000000000000
  0.4166666666666666  0.5500000000000000  0.0000000000000000
  0.4166666666666666  0.7500000000000000  0.0000000000000000
  0.4166666666666666  0.9500000000000001  0.0000000000000000
  0.4351833333333332  0.1500000000000000  0.0000000000000000
  0.4351833333333332  0.3500000000000000  0.0000000000000000
  0.4351833333333332  0.5500000000000000  0.0000000000000000
  0.4351833333333332  0.7500000000000000  0.0000000000000000
  0.4351833333333332  0.9500000000000001  0.0000000000000000
  0.4444444444444444  0.1000000000000000  0.0000000000000000
  0.4444444444444444  0.3000000000000000  0.0000000000000000
  0.4444444444444444  0.4999999999999999  0.0000000000000000
  0.4444444444444444  0.7000000000000000  0.0000000000000000
  0.4444444444444444  0.9000000000000000  0.0000000000000000
  0.4629611111111110  0.1000000000000000  0.0000000000000000
  0.4629611111111110  0.3000000000000000  0.0000000000000000
  0.4629611111111110  0.4999999999999999  0.0000000000000000
  0.4629611111111110  0.7000000000000000  0.0000000000000000
  0.4629611111111110  0.9000000000000000  0.0000000000000000
  0.4722222222222222  0.1500000000000000  0.0000000000000000
  0.4722222222222222  0.3500000000000000  0.0000000000000000
  0.4722222222222222  0.5500000000000000  0.0000000000000000
  0.4722222222222222  0.7500000000000000  0.0000000000000000
  0.4722222222222222  0.9500000000000001  0.0000000000000000
  0.4907388888888887  0.1500000000000000  0.0000000000000000
  0.4907388888888887  0.3500000000000000  0.0000000000000000
  0.4907388888888887  0.5500000000000000  0.0000000000000000
  0.4907388888888887  0.7500000000000000  0.0000000000000000
  0.4907388888888887  0.9500000000000001  0.0000000000000000
  0.4999999999999999  0.1000000000000000  0.0000000000000000
  0.4999999999999999  0.3000000000000000  0.0000000000000000
  0.4999999999999999  0.4999999999999999  0.0000000000000000
  0.4999999999999999  0.7000000000000000  0.0000000000000000
  0.4999999999999999  0.9000000000000000  0.0000000000000000
  0.5185166666666665  0.1000000000000000  0.0000000000000000
  0.5185166666666665  0.3000000000000000  0.0000000000000000
  0.5185166666666665  0.4999999999999999  0.0000000000000000
  0.5185166666666665  0.7000000000000000  0.0000000000000000
  0.5185166666666665  0.9000000000000000  0.0000000000000000
  0.5277777777777777  0.1500000000000000  0.0000000000000000
  0.5277777777777777  0.3500000000000000  0.0000000000000000
  0.5277777777777777  0.5500000000000000  0.0000000000000000
  0.5277777777777777  0.7500000000000000  0.0000000000000000
  0.5277777777777777  0.9500000000000001  0.0000000000000000
  0.5462944444444441  0.1500000000000000  0.0000000000000000
  0.5462944444444441  0.3500000000000000  0.0000000000000000
  0.5462944444444441  0.5500000000000000  0.0000000000000000
  0.5462944444444441  0.7500000000000000  0.0000000000000000
  0.5462944444444441  0.9500000000000001  0.0000000000000000
  0.5555555555555554  0.1000000000000000  0.0000000000000000
  0.5555555555555554  0.3000000000000000  0.0000000000000000
  0.5555555555555554  0.4999999999999999  0.0000000000000000
  0.5555555555555554  0.7000000000000000  0.0000000000000000
  0.5555555555555554  0.9000000000000000  0.0000000000000000
  0.5740722222222220  0.1000000000000000  0.0000000000000000
  0.5740722222222220  0.3000000000000000  0.0000000000000000
  0.5740722222222220  0.4999999999999999  0.0000000000000000
  0.5740722222222220  0.7000000000000000  0.0000000000000000
  0.5740722222222220  0.9000000000000000  0.0000000000000000
  0.5833333333333331  0.1500000000000000  0.0000000000000000
  0.5833333333333331  0.3500000000000000  0.0000000000000000
  0.5833333333333331  0.5500000000000000  0.0000000000000000
  0.5833333333333331  0.7500000000000000  0.0000000000000000
  0.5833333333333331  0.9500000000000001  0.0000000000000000
  0.6018499999999999  0.1500000000000000  0.0000000000000000
  0.6018499999999999  0.3500000000000000  0.0000000000000000
  0.6018499999999999  0.5500000000000000  0.0000000000000000
  0.6018499999999999  0.7500000000000000  0.0000000000000000
  0.6018499999999999  0.9500000000000001  0.0000000000000000
  0.6111111111111110  0.1000000000000000  0.0000000000000000
  0.6111111111111110  0.3000000000000000  0.0000000000000000
  0.6111111111111110  0.4999999999999999  0.0000000000000000
  0.6111111111111110  0.7000000000000000  0.0000000000000000
  0.6111111111111110  0.9000000000000000  0.0000000000000000
  0.6296277777777777  0.1000000000000000  0.0000000000000000
  0.6296277777777777  0.3000000000000000  0.0000000000000000
  0.6296277777777777  0.4999999999999999  0.0000000000000000
  0.6296277777777777  0.7000000000000000  0.0000000000000000
  0.6296277777777777  0.9000000000000000  0.0000000000000000
  0.6388888888888887  0.1500000000000000  0.0000000000000000
  0.6388888888888887  0.3500000000000000  0.0000000000000000
  0.6388888888888887  0.5500000000000000  0.0000000000000000
  0.6388888888888887  0.7500000000000000  0.0000000000000000
  0.6388888888888887  0.9500000000000001  0.0000000000000000
  0.6574055555555551  0.1500000000000000  0.0000000000000000
  0.6574055555555551  0.3500000000000000  0.0000000000000000
  0.6574055555555551  0.5500000000000000  0.0000000000000000
  0.6574055555555551  0.7500000000000000  0.0000000000000000
  0.6574055555555551  0.9500000000000001  0.0000000000000000
  0.6666666666666663  0.1000000000000000  0.0000000000000000
  0.6666666666666663  0.3000000000000000  0.0000000000000000
  0.6666666666666663  0.4999999999999999  0.0000000000000000
  0.6666666666666663  0.7000000000000000  0.0000000000000000
  0.6666666666666663  0.9000000000000000  0.0000000000000000
