C 
 1.0000000000000000
    25.5599999999999987    0.0000000000000000    0.0000000000000000
     0.0000000000000000   68.1599999999999966    0.0000000000000000
     0.0000000000000000    0.0000000000000000    2.8399999999999999
 C  
 252
Cartesian
  8.5199999999999996  0.0000000000000000  0.0000000000000000
  9.9398579999999992  0.0000000000000000  0.0000000000000000
 10.6499999999999986  1.2297560733739048  0.0000000000000000
 12.0698580000000000  1.2297560733739048  0.0000000000000000
 12.7799999999999994  0.0000000000000000  0.0000000000000000
 14.1998579999999990  0.0000000000000000  0.0000000000000000
 14.9100000000000001  1.2297560733739048  0.0000000000000000
 16.3298579999999980  1.2297560733739048  0.0000000000000000
 17.0399999999999991  0.0000000000000000  0.0000000000000000
  8.5199999999999996  2.4595121467478096  0.0000000000000000
  9.9398579999999992  2.4595121467478096  0.0000000000000000
 10.6499999999999986  3.6892682201217148  0.0000000000000000
 12.0698580000000000  3.6892682201217148  0.0000000000000000
 12.7799999999999994  2.4595121467478096  0.0000000000000000
 14.1998579999999990  2.4595121467478096  0.0000000000000000
 14.9100000000000001  3.6892682201217148  0.0000000000000000
 16.3298579999999980  3.6892682201217148  0.0000000000000000
 17.0399999999999991  2.4595121467478096  0.0000000000000000
  8.5199999999999996  4.9190242934956192  0.0000000000000000
  9.9398579999999992  4.9190242934956192  0.0000000000000000
 10.6499999999999986  6.1487803668695253  0.0000000000000000
 12.0698580000000000  6.1487803668695253  0.0000000000000000
 12.7799999999999994  4.9190242934956192  0.0000000000000000
 14.1998579999999990  4.9190242934956192  0.0000000000000000
 14.9100000000000001  6.1487803668695253  0.0000000000000000
 16.3298579999999980  6.1487803668695253  0.0000000000000000
 17.0399999999999991  4.9190242934956192  0.0000000000000000
  8.5199999999999996  7.3785364402434297  0.0000000000000000
  9.9398579999999992  7.3785364402434297  0.0000000000000000
 10.6499999999999986  8.6082925136173358  0.0000000000000000
 12.0698580000000000  8.6082925136173358  0.0000000000000000
 12.7799999999999994  7.3785364402434297  0.0000000000000000
 14.1998579999999990  7.3785364402434297  0.0000000000000000
 14.9100000000000001  8.6082925136173358  0.0000000000000000
 16.3298579999999980  8.6082925136173358  0.0000000000000000
 17.0399999999999991  7.3785364402434297  0.0000000000000000
  8.5199999999999996  9.8380485869912384  0.0000000000000000
  9.9398579999999992  9.8380485869912384  0.0000000000000000
 10.6499999999999986 11.0678046603651445  0.0000000000000000
 12.0698580000000000 11.0678046603651445  0.0000000000000000
 12.7799999999999994  9.8380485869912384  0.0000000000000000
 14.1998579999999990  9.8380485869912384  0.0000000000000000
 14.9100000000000001 11.0678046603651445  0.0000000000000000
 16.3298579999999980 11.0678046603651445  0.0000000000000000
 17.0399999999999991  9.8380485869912384  0.0000000000000000
  8.5199999999999996 12.2975607337390507  0.0000000000000000
  9.9398579999999992 12.2975607337390507  0.0000000000000000
 10.6499999999999986 13.5273168071129533  0.0000000000000000
 12.0698580000000000 13.5273168071129533  0.0000000000000000
 12.7799999999999994 12.2975607337390507  0.0000000000000000
 14.1998579999999990 12.2975607337390507  0.0000000000000000
 14.9100000000000001 13.5273168071129533  0.0000000000000000
 16.3298579999999980 13.5273168071129533  0.0000000000000000
 17.0399999999999991 12.2975607337390507  0.0000000000000000
  8.5199999999999996 14.7570728804868594  0.0000000000000000
  9.9398579999999992 14.7570728804868594  0.0000000000000000
 10.6499999999999986 15.9868289538607655  0.0000000000000000
 12.0698580000000000 15.9868289538607655  0.0000000000000000
 12.7799999999999994 14.7570728804868594  0.0000000000000000
 14.1998579999999990 14.7570728804868594  0.0000000000000000
 14.9100000000000001 15.9868289538607655  0.0000000000000000
 16.3298579999999980 15.9868289538607655  0.0000000000000000
 17.0399999999999991 14.7570728804868594  0.0000000000000000
  8.5199999999999996 17.2165850272346717  0.0000000000000000
  9.9398579999999992 17.2165850272346717  0.0000000000000000
 10.6499999999999986 18.4463411006085742  0.0000000000000000
 12.0698580000000000 18.4463411006085742  0.0000000000000000
 12.7799999999999994 17.2165850272346717  0.0000000000000000
 14.1998579999999990 17.2165850272346717  0.0000000000000000
 14.9100000000000001 18.4463411006085742  0.0000000000000000
 16.3298579999999980 18.4463411006085742  0.0000000000000000
 17.0399999999999991 17.2165850272346717  0.0000000000000000
  8.5199999999999996 19.6760971739824768  0.0000000000000000
  9.9398579999999992 19.6760971739824768  0.0000000000000000
 10.6499999999999986 20.9058532473563865  0.0000000000000000
 12.0698580000000000 20.9058532473563865  0.0000000000000000
 12.7799999999999994 19.6760971739824768  0.0000000000000000
 14.1998579999999990 19.6760971739824768  0.0000000000000000
 14.9100000000000001 20.9058532473563865  0.0000000000000000
 16.3298579999999980 20.9058532473563865  0.0000000000000000
 17.0399999999999991 19.6760971739824768  0.0000000000000000
  8.5199999999999996 22.1356093207302891  0.0000000000000000
  9.9398579999999992 22.1356093207302891  0.0000000000000000
 10.6499999999999986 23.3653653941041917  0.0000000000000000
 12.0698580000000000 23.3653653941041917  0.0000000000000000
 12.7799999999999994 22.1356093207302891  0.0000000000000000
 14.1998579999999990 22.1356093207302891  0.0000000000000000
 14.9100000000000001 23.3653653941041917  0.0000000000000000
 16.3298579999999980 23.3653653941041917  0.0000000000000000
 17.0399999999999991 22.1356093207302891  0.0000000000000000
  8.5199999999999996 24.5951214674781014  0.0000000000000000
  9.9398579999999992 24.5951214674781014  0.0000000000000000
 10.6499999999999986 25.8248775408520039  0.0000000000000000
 12.0698580000000000 25.8248775408520039  0.0000000000000000
 12.7799999999999994 24.5951214674781014  0.0000000000000000
 14.1998579999999990 24.5951214674781014  0.0000000000000000
 14.9100000000000001 25.8248775408520039  0.0000000000000000
 16.3298579999999980 25.8248775408520039  0.0000000000000000
 17.0399999999999991 24.5951214674781014  0.0000000000000000
  8.5199999999999996 27.0546336142259065  0.0000000000000000
  9.9398579999999992 27.0546336142259065  0.0000000000000000
 10.6499999999999986 28.2843896875998162  0.0000000000000000
 12.0698580000000000 28.2843896875998162  0.0000000000000000
 12.7799999999999994 27.0546336142259065  0.0000000000000000
 14.1998579999999990 27.0546336142259065  0.0000000000000000
 14.9100000000000001 28.2843896875998162  0.0000000000000000
 16.3298579999999980 28.2843896875998162  0.0000000000000000
 17.0399999999999991 27.0546336142259065  0.0000000000000000
  8.5199999999999996 29.5141457609737188  0.0000000000000000
  9.9398579999999992 29.5141457609737188  0.0000000000000000
 10.6499999999999986 30.7439018343476214  0.0000000000000000
 12.0698580000000000 30.7439018343476214  0.0000000000000000
 12.7799999999999994 29.5141457609737188  0.0000000000000000
 14.1998579999999990 29.5141457609737188  0.0000000000000000
 14.9100000000000001 30.7439018343476214  0.0000000000000000
 16.3298579999999980 30.7439018343476214  0.0000000000000000
 17.0399999999999991 29.5141457609737188  0.0000000000000000
  8.5199999999999996 31.9736579077215310  0.0000000000000000
  9.9398579999999992 31.9736579077215310  0.0000000000000000
 10.6499999999999986 33.2034139810954372  0.0000000000000000
 12.0698580000000000 33.2034139810954372  0.0000000000000000
 12.7799999999999994 31.9736579077215310  0.0000000000000000
 14.1998579999999990 31.9736579077215310  0.0000000000000000
 14.9100000000000001 33.2034139810954372  0.0000000000000000
 16.3298579999999980 33.2034139810954372  0.0000000000000000
 17.0399999999999991 31.9736579077215310  0.0000000000000000
  8.5199999999999996 34.4331700544693433  0.0000000000000000
  9.9398579999999992 34.4331700544693433  0.0000000000000000
 10.6499999999999986 35.6629261278432352  0.0000000000000000
 12.0698580000000000 35.6629261278432352  0.0000000000000000
 12.7799999999999994 34.4331700544693433  0.0000000000000000
 14.1998579999999990 34.4331700544693433  0.0000000000000000
 14.9100000000000001 35.6629261278432352  0.0000000000000000
 16.3298579999999980 35.6629261278432352  0.0000000000000000
 17.0399999999999991 34.4331700544693433  0.0000000000000000
  8.5199999999999996 36.8926822012171485  0.0000000000000000
  9.9398579999999992 36.8926822012171485  0.0000000000000000
 10.6499999999999986 38.1224382745910546  0.0000000000000000
 12.0698580000000000 38.1224382745910546  0.0000000000000000
 12.7799999999999994 36.8926822012171485  0.0000000000000000
 14.1998579999999990 36.8926822012171485  0.0000000000000000
 14.9100000000000001 38.1224382745910546  0.0000000000000000
 16.3298579999999980 38.1224382745910546  0.0000000000000000
 17.0399999999999991 36.8926822012171485  0.0000000000000000
  8.5199999999999996 39.3521943479649536  0.0000000000000000
  9.9398579999999992 39.3521943479649536  0.0000000000000000
 10.6499999999999986 40.5819504213388669  0.0000000000000000
 12.0698580000000000 40.5819504213388669  0.0000000000000000
 12.7799999999999994 39.3521943479649536  0.0000000000000000
 14.1998579999999990 39.3521943479649536  0.0000000000000000
 14.9100000000000001 40.5819504213388669  0.0000000000000000
 16.3298579999999980 40.5819504213388669  0.0000000000000000
 17.0399999999999991 39.3521943479649536  0.0000000000000000
  8.5199999999999996 41.8117064947127730  0.0000000000000000
  9.9398579999999992 41.8117064947127730  0.0000000000000000
 10.6499999999999986 43.0414625680866720  0.0000000000000000
 12.0698580000000000 43.0414625680866720  0.0000000000000000
 12.7799999999999994 41.8117064947127730  0.0000000000000000
 14.1998579999999990 41.8117064947127730  0.0000000000000000
 14.9100000000000001 43.0414625680866720  0.0000000000000000
 16.3298579999999980 43.0414625680866720  0.0000000000000000
 17.0399999999999991 41.8117064947127730  0.0000000000000000
  8.5199999999999996 44.2712186414605782  0.0000000000000000
  9.9398579999999992 44.2712186414605782  0.0000000000000000
 10.6499999999999986 45.5009747148344843  0.0000000000000000
 12.0698580000000000 45.5009747148344843  0.0000000000000000
 12.7799999999999994 44.2712186414605782  0.0000000000000000
 14.1998579999999990 44.2712186414605782  0.0000000000000000
 14.9100000000000001 45.5009747148344843  0.0000000000000000
 16.3298579999999980 45.5009747148344843  0.0000000000000000
 17.0399999999999991 44.2712186414605782  0.0000000000000000
  8.5199999999999996 46.7307307882083833  0.0000000000000000
  9.9398579999999992 46.7307307882083833  0.0000000000000000
 10.6499999999999986 47.9604868615822966  0.0000000000000000
 12.0698580000000000 47.9604868615822966  0.0000000000000000
 12.7799999999999994 46.7307307882083833  0.0000000000000000
 14.1998579999999990 46.7307307882083833  0.0000000000000000
 14.9100000000000001 47.9604868615822966  0.0000000000000000
 16.3298579999999980 47.9604868615822966  0.0000000000000000
 17.0399999999999991 46.7307307882083833  0.0000000000000000
  8.5199999999999996 49.1902429349562027  0.0000000000000000
  9.9398579999999992 49.1902429349562027  0.0000000000000000
 10.6499999999999986 50.4199990083301017  0.0000000000000000
 12.0698580000000000 50.4199990083301017  0.0000000000000000
 12.7799999999999994 49.1902429349562027  0.0000000000000000
 14.1998579999999990 49.1902429349562027  0.0000000000000000
 14.9100000000000001 50.4199990083301017  0.0000000000000000
 16.3298579999999980 50.4199990083301017  0.0000000000000000
 17.0399999999999991 49.1902429349562027  0.0000000000000000
  8.5199999999999996 51.6497550817040079  0.0000000000000000
  9.9398579999999992 51.6497550817040079  0.0000000000000000
 10.6499999999999986 52.8795111550779140  0.0000000000000000
 12.0698580000000000 52.8795111550779140  0.0000000000000000
 12.7799999999999994 51.6497550817040079  0.0000000000000000
 14.1998579999999990 51.6497550817040079  0.0000000000000000
 14.9100000000000001 52.8795111550779140  0.0000000000000000
 16.3298579999999980 52.8795111550779140  0.0000000000000000
 17.0399999999999991 51.6497550817040079  0.0000000000000000
  8.5199999999999996 54.1092672284518130  0.0000000000000000
  9.9398579999999992 54.1092672284518130  0.0000000000000000
 10.6499999999999986 55.3390233018257263  0.0000000000000000
 12.0698580000000000 55.3390233018257263  0.0000000000000000
 12.7799999999999994 54.1092672284518130  0.0000000000000000
 14.1998579999999990 54.1092672284518130  0.0000000000000000
 14.9100000000000001 55.3390233018257263  0.0000000000000000
 16.3298579999999980 55.3390233018257263  0.0000000000000000
 17.0399999999999991 54.1092672284518130  0.0000000000000000
  8.5199999999999996 56.5687793751996324  0.0000000000000000
  9.9398579999999992 56.5687793751996324  0.0000000000000000
 10.6499999999999986 57.7985354485735314  0.0000000000000000
 12.0698580000000000 57.7985354485735314  0.0000000000000000
 12.7799999999999994 56.5687793751996324  0.0000000000000000
 14.1998579999999990 56.5687793751996324  0.0000000000000000
 14.9100000000000001 57.7985354485735314  0.0000000000000000
 16.3298579999999980 57.7985354485735314  0.0000000000000000
 17.0399999999999991 56.5687793751996324  0.0000000000000000
  8.5199999999999996 59.0282915219474376  0.0000000000000000
  9.9398579999999992 59.0282915219474376  0.0000000000000000
 10.6499999999999986 60.2580475953213437  0.0000000000000000
 12.0698580000000000 60.2580475953213437  0.0000000000000000
 12.7799999999999994 59.0282915219474376  0.0000000000000000
 14.1998579999999990 59.0282915219474376  0.0000000000000000
 14.9100000000000001 60.2580475953213437  0.0000000000000000
 16.3298579999999980 60.2580475953213437  0.0000000000000000
 17.0399999999999991 59.0282915219474376  0.0000000000000000
  8.5199999999999996 61.4878036686952427  0.0000000000000000
  9.9398579999999992 61.4878036686952427  0.0000000000000000
 10.6499999999999986 62.7175597420691560  0.0000000000000000
 12.0698580000000000 62.7175597420691560  0.0000000000000000
 12.7799999999999994 61.4878036686952427  0.0000000000000000
 14.1998579999999990 61.4878036686952427  0.0000000000000000
 14.9100000000000001 62.7175597420691560  0.0000000000000000
 16.3298579999999980 62.7175597420691560  0.0000000000000000
 17.0399999999999991 61.4878036686952427  0.0000000000000000
  8.5199999999999996 63.9473158154430621  0.0000000000000000
  9.9398579999999992 63.9473158154430621  0.0000000000000000
 10.6499999999999986 65.1770718888169682  0.0000000000000000
 12.0698580000000000 65.1770718888169682  0.0000000000000000
 12.7799999999999994 63.9473158154430621  0.0000000000000000
 14.1998579999999990 63.9473158154430621  0.0000000000000000
 14.9100000000000001 65.1770718888169682  0.0000000000000000
 16.3298579999999980 65.1770718888169682  0.0000000000000000
 17.0399999999999991 63.9473158154430621  0.0000000000000000
  8.5199999999999996 66.4068279621908744  0.0000000000000000
  9.9398579999999992 66.4068279621908744  0.0000000000000000
 10.6499999999999986 67.6365840355647805  0.0000000000000000
 12.0698580000000000 67.6365840355647805  0.0000000000000000
 12.7799999999999994 66.4068279621908744  0.0000000000000000
 14.1998579999999990 66.4068279621908744  0.0000000000000000
 14.9100000000000001 67.6365840355647805  0.0000000000000000
 16.3298579999999980 67.6365840355647805  0.0000000000000000
 17.0399999999999991 66.4068279621908744  0.0000000000000000
