C 
 1.0000000000000000
    76.6800000000000068    0.0000000000000000    0.0000000000000000
     0.0000000000000000    4.9190242934956201    0.0000000000000000
     0.0000000000000000    0.0000000000000000   28.3999999999999986
 C  
  50
Cartesian
 25.5599999999999952  0.0000000000000000  0.0000000000000000
 26.9798579999999966  0.0000000000000000  0.0000000000000000
 27.6899999999999977  1.2297560733739050  0.0000000000000000
 29.1098579999999991  1.2297560733739050  0.0000000000000000
 29.8200000000000003  0.0000000000000000  0.0000000000000000
 31.2398580000000017  0.0000000000000000  0.0000000000000000
 31.9499999999999957  1.2297560733739050  0.0000000000000000
 33.3698579999999936  1.2297560733739050  0.0000000000000000
 34.0799999999999983  0.0000000000000000  0.0000000000000000
 35.4998579999999961  0.0000000000000000  0.0000000000000000
 36.2100000000000009  1.2297560733739050  0.0000000000000000
 37.6298579999999916  1.2297560733739050  0.0000000000000000
 38.3399999999999963  0.0000000000000000  0.0000000000000000
 39.7598579999999941  0.0000000000000000  0.0000000000000000
 40.4699999999999989  1.2297560733739050  0.0000000000000000
 41.8898579999999896  1.2297560733739050  0.0000000000000000
 42.5999999999999872  0.0000000000000000  0.0000000000000000
 44.0198579999999851  0.0000000000000000  0.0000000000000000
 44.7299999999999898  1.2297560733739050  0.0000000000000000
 46.1498579999999947  1.2297560733739050  0.0000000000000000
 46.8599999999999994  0.0000000000000000  0.0000000000000000
 48.2798579999999973  0.0000000000000000  0.0000000000000000
 48.9899999999999949  1.2297560733739050  0.0000000000000000
 50.4098579999999856  1.2297560733739050  0.0000000000000000
 51.1199999999999903  0.0000000000000000  0.0000000000000000
 25.5599999999999952  2.4595121467478100  0.0000000000000000
 26.9798579999999966  2.4595121467478100  0.0000000000000000
 27.6899999999999977  3.6892682201217148  0.0000000000000000
 29.1098579999999991  3.6892682201217148  0.0000000000000000
 29.8200000000000003  2.4595121467478100  0.0000000000000000
 31.2398580000000017  2.4595121467478100  0.0000000000000000
 31.9499999999999957  3.6892682201217148  0.0000000000000000
 33.3698579999999936  3.6892682201217148  0.0000000000000000
 34.0799999999999983  2.4595121467478100  0.0000000000000000
 35.4998579999999961  2.4595121467478100  0.0000000000000000
 36.2100000000000009  3.6892682201217148  0.0000000000000000
 37.6298579999999916  3.6892682201217148  0.0000000000000000
 38.3399999999999963  2.4595121467478100  0.0000000000000000
 39.7598579999999941  2.4595121467478100  0.0000000000000000
 40.4699999999999989  3.6892682201217148  0.0000000000000000
 41.8898579999999896  3.6892682201217148  0.0000000000000000
 42.5999999999999872  2.4595121467478100  0.0000000000000000
 44.0198579999999851  2.4595121467478100  0.0000000000000000
 44.7299999999999898  3.6892682201217148  0.0000000000000000
 46.1498579999999947  3.6892682201217148  0.0000000000000000
 46.8599999999999994  2.4595121467478100  0.0000000000000000
 48.2798579999999973  2.4595121467478100  0.0000000000000000
 48.9899999999999949  3.6892682201217148  0.0000000000000000
 50.4098579999999856  3.6892682201217148  0.0000000000000000
 51.1199999999999903  2.4595121467478100  0.0000000000000000
