generated by phonopy
   1.0
    25.5599999999999987    0.0000000000000000    0.0000000000000000
     0.0000000000000000  340.7999999999999545    0.0000000000000000
     0.0000000000000000    0.0000000000000000    2.8399999999999999
C
1260
Direct
  0.3333333333333333  0.0000000000000000  0.0000000000000000
  0.3333333333333333  0.2000000000000000  0.0000000000000000
  0.3333333333333333  0.4000000000000000  0.0000000000000000
  0.3333333333333333  0.6000000000000000  0.0000000000000000
  0.3333333333333333  0.8000000000000000  0.0000000000000000
  0.3888833333333333  0.0000000000000000  0.0000000000000000
  0.3888833333333333  0.2000000000000000  0.0000000000000000
  0.3888833333333333  0.4000000000000000  0.0000000000000000
  0.3888833333333333  0.6000000000000000  0.0000000000000000
  0.3888833333333333  0.8000000000000000  0.0000000000000000
  0.4166666666666666  0.0036084391824352  0.0000000000000000
  0.4166666666666666  0.2036084391824352  0.0000000000000000
  0.4166666666666666  0.4036084391824352  0.0000000000000000
  0.4166666666666666  0.6036084391824352  0.0000000000000000
  0.4166666666666666  0.8036084391824352  0.0000000000000000
  0.4722166666666667  0.0036084391824352  0.0000000000000000
  0.4722166666666667  0.2036084391824352  0.0000000000000000
  0.4722166666666667  0.4036084391824352  0.0000000000000000
  0.4722166666666667  0.6036084391824352  0.0000000000000000
  0.4722166666666667  0.8036084391824352  0.0000000000000000
  0.5000000000000000  0.0000000000000000  0.0000000000000000
  0.5000000000000000  0.2000000000000000  0.0000000000000000
  0.5000000000000000  0.4000000000000000  0.0000000000000000
  0.5000000000000000  0.6000000000000000  0.0000000000000000
  0.5000000000000000  0.8000000000000000  0.0000000000000000
  0.5555500000000000  0.0000000000000000  0.0000000000000000
  0.5555500000000000  0.2000000000000000  0.0000000000000000
  0.5555500000000000  0.4000000000000000  0.0000000000000000
  0.5555500000000000  0.6000000000000000  0.0000000000000000
  0.5555500000000000  0.8000000000000000  0.0000000000000000
  0.5833333333333334  0.0036377819054399  0.0000000000000000
  0.5833333333333334  0.2036084391824352  0.0000000000000000
  0.5833333333333334  0.4036084391824352  0.0000000000000000
  0.5833333333333334  0.6036084391824352  0.0000000000000000
  0.5833333333333334  0.8036084391824352  0.0000000000000000
  0.6388833333333332  0.0036084391824352  0.0000000000000000
  0.6388833333333332  0.2036084391824352  0.0000000000000000
  0.6388833333333332  0.4036084391824352  0.0000000000000000
  0.6388833333333332  0.6036084391824352  0.0000000000000000
  0.6388833333333332  0.8036084391824352  0.0000000000000000
  0.6666666666666666  0.0000000000000000  0.0000000000000000
  0.6666666666666666  0.2000000000000000  0.0000000000000000
  0.6666666666666666  0.4000000000000000  0.0000000000000000
  0.6666666666666666  0.6000000000000000  0.0000000000000000
  0.6666666666666666  0.8000000000000000  0.0000000000000000
  0.3333333333333333  0.0072168783648703  0.0000000000000000
  0.3333333333333333  0.2072168783648703  0.0000000000000000
  0.3333333333333333  0.4072168783648704  0.0000000000000000
  0.3333333333333333  0.6072168783648704  0.0000000000000000
  0.3333333333333333  0.8072168783648703  0.0000000000000000
  0.3888833333333333  0.0072168783648703  0.0000000000000000
  0.3888833333333333  0.2072168783648703  0.0000000000000000
  0.3888833333333333  0.4072168783648704  0.0000000000000000
  0.3888833333333333  0.6072168783648704  0.0000000000000000
  0.3888833333333333  0.8072168783648703  0.0000000000000000
  0.4166666666666666  0.0108253175473055  0.0000000000000000
  0.4166666666666666  0.2108253175473055  0.0000000000000000
  0.4166666666666666  0.4108253175473056  0.0000000000000000
  0.4166666666666666  0.6108253175473055  0.0000000000000000
  0.4166666666666666  0.8108253175473055  0.0000000000000000
  0.4722166666666667  0.0108253175473055  0.0000000000000000
  0.4722166666666667  0.2108253175473055  0.0000000000000000
  0.4722166666666667  0.4108253175473056  0.0000000000000000
  0.4722166666666667  0.6108253175473055  0.0000000000000000
  0.4722166666666667  0.8108253175473055  0.0000000000000000
  0.5000000000000000  0.0072168783648703  0.0000000000000000
  0.5000000000000000  0.2072168783648703  0.0000000000000000
  0.5000000000000000  0.4072168783648704  0.0000000000000000
  0.5000000000000000  0.6072168783648704  0.0000000000000000
  0.5000000000000000  0.8072168783648703  0.0000000000000000
  0.5555500000000000  0.0072168783648703  0.0000000000000000
  0.5555500000000000  0.2072168783648703  0.0000000000000000
  0.5555500000000000  0.4072168783648704  0.0000000000000000
  0.5555500000000000  0.6072168783648704  0.0000000000000000
  0.5555500000000000  0.8072168783648703  0.0000000000000000
  0.5833333333333334  0.0108253175473055  0.0000000000000000
  0.5833333333333334  0.2108253175473055  0.0000000000000000
  0.5833333333333334  0.4108253175473056  0.0000000000000000
  0.5833333333333334  0.6108253175473055  0.0000000000000000
  0.5833333333333334  0.8108253175473055  0.0000000000000000
  0.6388833333333332  0.0108253175473055  0.0000000000000000
  0.6388833333333332  0.2108253175473055  0.0000000000000000
  0.6388833333333332  0.4108253175473056  0.0000000000000000
  0.6388833333333332  0.6108253175473055  0.0000000000000000
  0.6388833333333332  0.8108253175473055  0.0000000000000000
  0.6666666666666666  0.0072168783648703  0.0000000000000000
  0.6666666666666666  0.2072168783648703  0.0000000000000000
  0.6666666666666666  0.4072168783648704  0.0000000000000000
  0.6666666666666666  0.6072168783648704  0.0000000000000000
  0.6666666666666666  0.8072168783648703  0.0000000000000000
  0.3333333333333333  0.0144337567297407  0.0000000000000000
  0.3333333333333333  0.2144337567297407  0.0000000000000000
  0.3333333333333333  0.4144337567297407  0.0000000000000000
  0.3333333333333333  0.6144337567297407  0.0000000000000000
  0.3333333333333333  0.8144337567297407  0.0000000000000000
  0.3888833333333333  0.0144337567297407  0.0000000000000000
  0.3888833333333333  0.2144337567297407  0.0000000000000000
  0.3888833333333333  0.4144337567297407  0.0000000000000000
  0.3888833333333333  0.6144337567297407  0.0000000000000000
  0.3888833333333333  0.8144337567297407  0.0000000000000000
  0.4166666666666666  0.0180421959121758  0.0000000000000000
  0.4166666666666666  0.2180421959121759  0.0000000000000000
  0.4166666666666666  0.4180421959121758  0.0000000000000000
  0.4166666666666666  0.6180421959121758  0.0000000000000000
  0.4166666666666666  0.8180421959121760  0.0000000000000000
  0.4722166666666667  0.0180421959121758  0.0000000000000000
  0.4722166666666667  0.2180421959121759  0.0000000000000000
  0.4722166666666667  0.4180421959121758  0.0000000000000000
  0.4722166666666667  0.6180421959121758  0.0000000000000000
  0.4722166666666667  0.8180421959121760  0.0000000000000000
  0.5000000000000000  0.0144337567297407  0.0000000000000000
  0.5000000000000000  0.2144337567297407  0.0000000000000000
  0.5000000000000000  0.4144337567297407  0.0000000000000000
  0.5000000000000000  0.6144337567297407  0.0000000000000000
  0.5000000000000000  0.8144337567297407  0.0000000000000000
  0.5555500000000000  0.0144337567297407  0.0000000000000000
  0.5555500000000000  0.2144337567297407  0.0000000000000000
  0.5555500000000000  0.4144337567297407  0.0000000000000000
  0.5555500000000000  0.6144337567297407  0.0000000000000000
  0.5555500000000000  0.8144337567297407  0.0000000000000000
  0.5833333333333334  0.0180421959121758  0.0000000000000000
  0.5833333333333334  0.2180421959121759  0.0000000000000000
  0.5833333333333334  0.4180421959121758  0.0000000000000000
  0.5833333333333334  0.6180421959121758  0.0000000000000000
  0.5833333333333334  0.8180421959121760  0.0000000000000000
  0.6388833333333332  0.0180421959121758  0.0000000000000000
  0.6388833333333332  0.2180421959121759  0.0000000000000000
  0.6388833333333332  0.4180421959121758  0.0000000000000000
  0.6388833333333332  0.6180421959121758  0.0000000000000000
  0.6388833333333332  0.8180421959121760  0.0000000000000000
  0.6666666666666666  0.0144337567297407  0.0000000000000000
  0.6666666666666666  0.2144337567297407  0.0000000000000000
  0.6666666666666666  0.4144337567297407  0.0000000000000000
  0.6666666666666666  0.6144337567297407  0.0000000000000000
  0.6666666666666666  0.8144337567297407  0.0000000000000000
  0.3333333333333333  0.0216506350946110  0.0000000000000000
  0.3333333333333333  0.2216506350946110  0.0000000000000000
  0.3333333333333333  0.4216506350946110  0.0000000000000000
  0.3333333333333333  0.6216506350946110  0.0000000000000000
  0.3333333333333333  0.8216506350946111  0.0000000000000000
  0.3888833333333333  0.0216506350946110  0.0000000000000000
  0.3888833333333333  0.2216506350946110  0.0000000000000000
  0.3888833333333333  0.4216506350946110  0.0000000000000000
  0.3888833333333333  0.6216506350946110  0.0000000000000000
  0.3888833333333333  0.8216506350946111  0.0000000000000000
  0.4166666666666666  0.0252590742770462  0.0000000000000000
  0.4166666666666666  0.2252590742770462  0.0000000000000000
  0.4166666666666666  0.4252590742770462  0.0000000000000000
  0.4166666666666666  0.6252590742770462  0.0000000000000000
  0.4166666666666666  0.8252590742770463  0.0000000000000000
  0.4722166666666667  0.0252590742770462  0.0000000000000000
  0.4722166666666667  0.2252590742770462  0.0000000000000000
  0.4722166666666667  0.4252590742770462  0.0000000000000000
  0.4722166666666667  0.6252590742770462  0.0000000000000000
  0.4722166666666667  0.8252590742770463  0.0000000000000000
  0.5000000000000000  0.0216506350946110  0.0000000000000000
  0.5000000000000000  0.2216506350946110  0.0000000000000000
  0.5000000000000000  0.4216506350946110  0.0000000000000000
  0.5000000000000000  0.6216506350946110  0.0000000000000000
  0.5000000000000000  0.8216506350946111  0.0000000000000000
  0.5555500000000000  0.0216506350946110  0.0000000000000000
  0.5555500000000000  0.2216506350946110  0.0000000000000000
  0.5555500000000000  0.4216506350946110  0.0000000000000000
  0.5555500000000000  0.6216506350946110  0.0000000000000000
  0.5555500000000000  0.8216506350946111  0.0000000000000000
  0.5833333333333334  0.0252590742770462  0.0000000000000000
  0.5833333333333334  0.2252590742770462  0.0000000000000000
  0.5833333333333334  0.4252590742770462  0.0000000000000000
  0.5833333333333334  0.6252590742770462  0.0000000000000000
  0.5833333333333334  0.8252590742770463  0.0000000000000000
  0.6388833333333332  0.0252590742770462  0.0000000000000000
  0.6388833333333332  0.2252590742770462  0.0000000000000000
  0.6388833333333332  0.4252590742770462  0.0000000000000000
  0.6388833333333332  0.6252590742770462  0.0000000000000000
  0.6388833333333332  0.8252590742770463  0.0000000000000000
  0.6666666666666666  0.0216506350946110  0.0000000000000000
  0.6666666666666666  0.2216506350946110  0.0000000000000000
  0.6666666666666666  0.4216506350946110  0.0000000000000000
  0.6666666666666666  0.6216506350946110  0.0000000000000000
  0.6666666666666666  0.8216506350946111  0.0000000000000000
  0.3333333333333333  0.0288675134594813  0.0000000000000000
  0.3333333333333333  0.2288675134594813  0.0000000000000000
  0.3333333333333333  0.4288675134594813  0.0000000000000000
  0.3333333333333333  0.6288675134594813  0.0000000000000000
  0.3333333333333333  0.8288675134594814  0.0000000000000000
  0.3888833333333333  0.0288675134594813  0.0000000000000000
  0.3888833333333333  0.2288675134594813  0.0000000000000000
  0.3888833333333333  0.4288675134594813  0.0000000000000000
  0.3888833333333333  0.6288675134594813  0.0000000000000000
  0.3888833333333333  0.8288675134594814  0.0000000000000000
  0.4166666666666666  0.0324759526419165  0.0000000000000000
  0.4166666666666666  0.2324759526419165  0.0000000000000000
  0.4166666666666666  0.4324759526419165  0.0000000000000000
  0.4166666666666666  0.6324759526419165  0.0000000000000000
  0.4166666666666666  0.8324759526419165  0.0000000000000000
  0.4722166666666667  0.0324759526419165  0.0000000000000000
  0.4722166666666667  0.2324759526419165  0.0000000000000000
  0.4722166666666667  0.4324759526419165  0.0000000000000000
  0.4722166666666667  0.6324759526419165  0.0000000000000000
  0.4722166666666667  0.8324759526419165  0.0000000000000000
  0.5000000000000000  0.0288675134594813  0.0000000000000000
  0.5000000000000000  0.2288675134594813  0.0000000000000000
  0.5000000000000000  0.4288675134594813  0.0000000000000000
  0.5000000000000000  0.6288675134594813  0.0000000000000000
  0.5000000000000000  0.8288675134594814  0.0000000000000000
  0.5555500000000000  0.0288675134594813  0.0000000000000000
  0.5555500000000000  0.2288675134594813  0.0000000000000000
  0.5555500000000000  0.4288675134594813  0.0000000000000000
  0.5555500000000000  0.6288675134594813  0.0000000000000000
  0.5555500000000000  0.8288675134594814  0.0000000000000000
  0.5833333333333334  0.0324759526419165  0.0000000000000000
  0.5833333333333334  0.2324759526419165  0.0000000000000000
  0.5833333333333334  0.4324759526419165  0.0000000000000000
  0.5833333333333334  0.6324759526419165  0.0000000000000000
  0.5833333333333334  0.8324759526419165  0.0000000000000000
  0.6388833333333332  0.0324759526419165  0.0000000000000000
  0.6388833333333332  0.2324759526419165  0.0000000000000000
  0.6388833333333332  0.4324759526419165  0.0000000000000000
  0.6388833333333332  0.6324759526419165  0.0000000000000000
  0.6388833333333332  0.8324759526419165  0.0000000000000000
  0.6666666666666666  0.0288675134594813  0.0000000000000000
  0.6666666666666666  0.2288675134594813  0.0000000000000000
  0.6666666666666666  0.4288675134594813  0.0000000000000000
  0.6666666666666666  0.6288675134594813  0.0000000000000000
  0.6666666666666666  0.8288675134594814  0.0000000000000000
  0.3333333333333333  0.0360843918243517  0.0000000000000000
  0.3333333333333333  0.2360843918243517  0.0000000000000000
  0.3333333333333333  0.4360843918243517  0.0000000000000000
  0.3333333333333333  0.6360843918243517  0.0000000000000000
  0.3333333333333333  0.8360843918243517  0.0000000000000000
  0.3888833333333333  0.0360843918243517  0.0000000000000000
  0.3888833333333333  0.2360843918243517  0.0000000000000000
  0.3888833333333333  0.4360843918243517  0.0000000000000000
  0.3888833333333333  0.6360843918243517  0.0000000000000000
  0.3888833333333333  0.8360843918243517  0.0000000000000000
  0.4166666666666666  0.0396928310067868  0.0000000000000000
  0.4166666666666666  0.2396928310067868  0.0000000000000000
  0.4166666666666666  0.4396928310067869  0.0000000000000000
  0.4166666666666666  0.6396928310067869  0.0000000000000000
  0.4166666666666666  0.8396928310067869  0.0000000000000000
  0.4722166666666667  0.0396928310067868  0.0000000000000000
  0.4722166666666667  0.2396928310067868  0.0000000000000000
  0.4722166666666667  0.4396928310067869  0.0000000000000000
  0.4722166666666667  0.6396928310067869  0.0000000000000000
  0.4722166666666667  0.8396928310067869  0.0000000000000000
  0.5000000000000000  0.0360843918243517  0.0000000000000000
  0.5000000000000000  0.2360843918243517  0.0000000000000000
  0.5000000000000000  0.4360843918243517  0.0000000000000000
  0.5000000000000000  0.6360843918243517  0.0000000000000000
  0.5000000000000000  0.8360843918243517  0.0000000000000000
  0.5555500000000000  0.0360843918243517  0.0000000000000000
  0.5555500000000000  0.2360843918243517  0.0000000000000000
  0.5555500000000000  0.4360843918243517  0.0000000000000000
  0.5555500000000000  0.6360843918243517  0.0000000000000000
  0.5555500000000000  0.8360843918243517  0.0000000000000000
  0.5833333333333334  0.0396928310067868  0.0000000000000000
  0.5833333333333334  0.2396928310067868  0.0000000000000000
  0.5833333333333334  0.4396928310067869  0.0000000000000000
  0.5833333333333334  0.6396928310067869  0.0000000000000000
  0.5833333333333334  0.8396928310067869  0.0000000000000000
  0.6388833333333332  0.0396928310067868  0.0000000000000000
  0.6388833333333332  0.2396928310067868  0.0000000000000000
  0.6388833333333332  0.4396928310067869  0.0000000000000000
  0.6388833333333332  0.6396928310067869  0.0000000000000000
  0.6388833333333332  0.8396928310067869  0.0000000000000000
  0.6666666666666666  0.0360843918243517  0.0000000000000000
  0.6666666666666666  0.2360843918243517  0.0000000000000000
  0.6666666666666666  0.4360843918243517  0.0000000000000000
  0.6666666666666666  0.6360843918243517  0.0000000000000000
  0.6666666666666666  0.8360843918243517  0.0000000000000000
  0.3333333333333333  0.0433012701892220  0.0000000000000000
  0.3333333333333333  0.2433012701892220  0.0000000000000000
  0.3333333333333333  0.4433012701892221  0.0000000000000000
  0.3333333333333333  0.6433012701892221  0.0000000000000000
  0.3333333333333333  0.8433012701892221  0.0000000000000000
  0.3888833333333333  0.0433012701892220  0.0000000000000000
  0.3888833333333333  0.2433012701892220  0.0000000000000000
  0.3888833333333333  0.4433012701892221  0.0000000000000000
  0.3888833333333333  0.6433012701892221  0.0000000000000000
  0.3888833333333333  0.8433012701892221  0.0000000000000000
  0.4166666666666666  0.0469097093716572  0.0000000000000000
  0.4166666666666666  0.2469097093716572  0.0000000000000000
  0.4166666666666666  0.4469097093716572  0.0000000000000000
  0.4166666666666666  0.6469097093716573  0.0000000000000000
  0.4166666666666666  0.8469097093716572  0.0000000000000000
  0.4722166666666667  0.0469097093716572  0.0000000000000000
  0.4722166666666667  0.2469097093716572  0.0000000000000000
  0.4722166666666667  0.4469097093716572  0.0000000000000000
  0.4722166666666667  0.6469097093716573  0.0000000000000000
  0.4722166666666667  0.8469097093716572  0.0000000000000000
  0.5000000000000000  0.0433012701892220  0.0000000000000000
  0.5000000000000000  0.2433012701892220  0.0000000000000000
  0.5000000000000000  0.4433012701892221  0.0000000000000000
  0.5000000000000000  0.6433012701892221  0.0000000000000000
  0.5000000000000000  0.8433012701892221  0.0000000000000000
  0.5555500000000000  0.0433012701892220  0.0000000000000000
  0.5555500000000000  0.2433012701892220  0.0000000000000000
  0.5555500000000000  0.4433012701892221  0.0000000000000000
  0.5555500000000000  0.6433012701892221  0.0000000000000000
  0.5555500000000000  0.8433012701892221  0.0000000000000000
  0.5833333333333334  0.0469097093716572  0.0000000000000000
  0.5833333333333334  0.2469097093716572  0.0000000000000000
  0.5833333333333334  0.4469097093716572  0.0000000000000000
  0.5833333333333334  0.6469097093716573  0.0000000000000000
  0.5833333333333334  0.8469097093716572  0.0000000000000000
  0.6388833333333332  0.0469097093716572  0.0000000000000000
  0.6388833333333332  0.2469097093716572  0.0000000000000000
  0.6388833333333332  0.4469097093716572  0.0000000000000000
  0.6388833333333332  0.6469097093716573  0.0000000000000000
  0.6388833333333332  0.8469097093716572  0.0000000000000000
  0.6666666666666666  0.0433012701892220  0.0000000000000000
  0.6666666666666666  0.2433012701892220  0.0000000000000000
  0.6666666666666666  0.4433012701892221  0.0000000000000000
  0.6666666666666666  0.6433012701892221  0.0000000000000000
  0.6666666666666666  0.8433012701892221  0.0000000000000000
  0.3333333333333333  0.0505181485540923  0.0000000000000000
  0.3333333333333333  0.2505181485540923  0.0000000000000000
  0.3333333333333333  0.4505181485540923  0.0000000000000000
  0.3333333333333333  0.6505181485540923  0.0000000000000000
  0.3333333333333333  0.8505181485540924  0.0000000000000000
  0.3888833333333333  0.0505181485540923  0.0000000000000000
  0.3888833333333333  0.2505181485540923  0.0000000000000000
  0.3888833333333333  0.4505181485540923  0.0000000000000000
  0.3888833333333333  0.6505181485540923  0.0000000000000000
  0.3888833333333333  0.8505181485540924  0.0000000000000000
  0.4166666666666666  0.0541265877365275  0.0000000000000000
  0.4166666666666666  0.2541265877365275  0.0000000000000000
  0.4166666666666666  0.4541265877365275  0.0000000000000000
  0.4166666666666666  0.6541265877365275  0.0000000000000000
  0.4166666666666666  0.8541265877365275  0.0000000000000000
  0.4722166666666667  0.0541265877365275  0.0000000000000000
  0.4722166666666667  0.2541265877365275  0.0000000000000000
  0.4722166666666667  0.4541265877365275  0.0000000000000000
  0.4722166666666667  0.6541265877365275  0.0000000000000000
  0.4722166666666667  0.8541265877365275  0.0000000000000000
  0.5000000000000000  0.0505181485540923  0.0000000000000000
  0.5000000000000000  0.2505181485540923  0.0000000000000000
  0.5000000000000000  0.4505181485540923  0.0000000000000000
  0.5000000000000000  0.6505181485540923  0.0000000000000000
  0.5000000000000000  0.8505181485540924  0.0000000000000000
  0.5555500000000000  0.0505181485540923  0.0000000000000000
  0.5555500000000000  0.2505181485540923  0.0000000000000000
  0.5555500000000000  0.4505181485540923  0.0000000000000000
  0.5555500000000000  0.6505181485540923  0.0000000000000000
  0.5555500000000000  0.8505181485540924  0.0000000000000000
  0.5833333333333334  0.0541265877365275  0.0000000000000000
  0.5833333333333334  0.2541265877365275  0.0000000000000000
  0.5833333333333334  0.4541265877365275  0.0000000000000000
  0.5833333333333334  0.6541265877365275  0.0000000000000000
  0.5833333333333334  0.8541265877365275  0.0000000000000000
  0.6388833333333332  0.0541265877365275  0.0000000000000000
  0.6388833333333332  0.2541265877365275  0.0000000000000000
  0.6388833333333332  0.4541265877365275  0.0000000000000000
  0.6388833333333332  0.6541265877365275  0.0000000000000000
  0.6388833333333332  0.8541265877365275  0.0000000000000000
  0.6666666666666666  0.0505181485540923  0.0000000000000000
  0.6666666666666666  0.2505181485540923  0.0000000000000000
  0.6666666666666666  0.4505181485540923  0.0000000000000000
  0.6666666666666666  0.6505181485540923  0.0000000000000000
  0.6666666666666666  0.8505181485540924  0.0000000000000000
  0.3333333333333333  0.0577350269189627  0.0000000000000000
  0.3333333333333333  0.2577350269189627  0.0000000000000000
  0.3333333333333333  0.4577350269189626  0.0000000000000000
  0.3333333333333333  0.6577350269189627  0.0000000000000000
  0.3333333333333333  0.8577350269189626  0.0000000000000000
  0.3888833333333333  0.0577350269189627  0.0000000000000000
  0.3888833333333333  0.2577350269189627  0.0000000000000000
  0.3888833333333333  0.4577350269189626  0.0000000000000000
  0.3888833333333333  0.6577350269189627  0.0000000000000000
  0.3888833333333333  0.8577350269189626  0.0000000000000000
  0.4166666666666666  0.0613434661013978  0.0000000000000000
  0.4166666666666666  0.2613434661013979  0.0000000000000000
  0.4166666666666666  0.4613434661013979  0.0000000000000000
  0.4166666666666666  0.6613434661013979  0.0000000000000000
  0.4166666666666666  0.8613434661013979  0.0000000000000000
  0.4722166666666667  0.0613434661013978  0.0000000000000000
  0.4722166666666667  0.2613434661013979  0.0000000000000000
  0.4722166666666667  0.4613434661013979  0.0000000000000000
  0.4722166666666667  0.6613434661013979  0.0000000000000000
  0.4722166666666667  0.8613434661013979  0.0000000000000000
  0.5000000000000000  0.0577350269189627  0.0000000000000000
  0.5000000000000000  0.2577350269189627  0.0000000000000000
  0.5000000000000000  0.4577350269189626  0.0000000000000000
  0.5000000000000000  0.6577350269189627  0.0000000000000000
  0.5000000000000000  0.8577350269189626  0.0000000000000000
  0.5555500000000000  0.0577350269189627  0.0000000000000000
  0.5555500000000000  0.2577350269189627  0.0000000000000000
  0.5555500000000000  0.4577350269189626  0.0000000000000000
  0.5555500000000000  0.6577350269189627  0.0000000000000000
  0.5555500000000000  0.8577350269189626  0.0000000000000000
  0.5833333333333334  0.0613434661013978  0.0000000000000000
  0.5833333333333334  0.2613434661013979  0.0000000000000000
  0.5833333333333334  0.4613434661013979  0.0000000000000000
  0.5833333333333334  0.6613434661013979  0.0000000000000000
  0.5833333333333334  0.8613434661013979  0.0000000000000000
  0.6388833333333332  0.0613434661013978  0.0000000000000000
  0.6388833333333332  0.2613434661013979  0.0000000000000000
  0.6388833333333332  0.4613434661013979  0.0000000000000000
  0.6388833333333332  0.6613434661013979  0.0000000000000000
  0.6388833333333332  0.8613434661013979  0.0000000000000000
  0.6666666666666666  0.0577350269189627  0.0000000000000000
  0.6666666666666666  0.2577350269189627  0.0000000000000000
  0.6666666666666666  0.4577350269189626  0.0000000000000000
  0.6666666666666666  0.6577350269189627  0.0000000000000000
  0.6666666666666666  0.8577350269189626  0.0000000000000000
  0.3333333333333333  0.0649519052838330  0.0000000000000000
  0.3333333333333333  0.2649519052838330  0.0000000000000000
  0.3333333333333333  0.4649519052838330  0.0000000000000000
  0.3333333333333333  0.6649519052838330  0.0000000000000000
  0.3333333333333333  0.8649519052838330  0.0000000000000000
  0.3888833333333333  0.0649519052838330  0.0000000000000000
  0.3888833333333333  0.2649519052838330  0.0000000000000000
  0.3888833333333333  0.4649519052838330  0.0000000000000000
  0.3888833333333333  0.6649519052838330  0.0000000000000000
  0.3888833333333333  0.8649519052838330  0.0000000000000000
  0.4166666666666666  0.0685603444662682  0.0000000000000000
  0.4166666666666666  0.2685603444662682  0.0000000000000000
  0.4166666666666666  0.4685603444662682  0.0000000000000000
  0.4166666666666666  0.6685603444662682  0.0000000000000000
  0.4166666666666666  0.8685603444662683  0.0000000000000000
  0.4722166666666667  0.0685603444662682  0.0000000000000000
  0.4722166666666667  0.2685603444662682  0.0000000000000000
  0.4722166666666667  0.4685603444662682  0.0000000000000000
  0.4722166666666667  0.6685603444662682  0.0000000000000000
  0.4722166666666667  0.8685603444662683  0.0000000000000000
  0.5000000000000000  0.0649519052838330  0.0000000000000000
  0.5000000000000000  0.2649519052838330  0.0000000000000000
  0.5000000000000000  0.4649519052838330  0.0000000000000000
  0.5000000000000000  0.6649519052838330  0.0000000000000000
  0.5000000000000000  0.8649519052838330  0.0000000000000000
  0.5555500000000000  0.0649519052838330  0.0000000000000000
  0.5555500000000000  0.2649519052838330  0.0000000000000000
  0.5555500000000000  0.4649519052838330  0.0000000000000000
  0.5555500000000000  0.6649519052838330  0.0000000000000000
  0.5555500000000000  0.8649519052838330  0.0000000000000000
  0.5833333333333334  0.0685603444662682  0.0000000000000000
  0.5833333333333334  0.2685603444662682  0.0000000000000000
  0.5833333333333334  0.4685603444662682  0.0000000000000000
  0.5833333333333334  0.6685603444662682  0.0000000000000000
  0.5833333333333334  0.8685603444662683  0.0000000000000000
  0.6388833333333332  0.0685603444662682  0.0000000000000000
  0.6388833333333332  0.2685603444662682  0.0000000000000000
  0.6388833333333332  0.4685603444662682  0.0000000000000000
  0.6388833333333332  0.6685603444662682  0.0000000000000000
  0.6388833333333332  0.8685603444662683  0.0000000000000000
  0.6666666666666666  0.0649519052838330  0.0000000000000000
  0.6666666666666666  0.2649519052838330  0.0000000000000000
  0.6666666666666666  0.4649519052838330  0.0000000000000000
  0.6666666666666666  0.6649519052838330  0.0000000000000000
  0.6666666666666666  0.8649519052838330  0.0000000000000000
  0.3333333333333333  0.0721687836487034  0.0000000000000000
  0.3333333333333333  0.2721687836487034  0.0000000000000000
  0.3333333333333333  0.4721687836487033  0.0000000000000000
  0.3333333333333333  0.6721687836487034  0.0000000000000000
  0.3333333333333333  0.8721687836487034  0.0000000000000000
  0.3888833333333333  0.0721687836487034  0.0000000000000000
  0.3888833333333333  0.2721687836487034  0.0000000000000000
  0.3888833333333333  0.4721687836487033  0.0000000000000000
  0.3888833333333333  0.6721687836487034  0.0000000000000000
  0.3888833333333333  0.8721687836487034  0.0000000000000000
  0.4166666666666666  0.0757772228311385  0.0000000000000000
  0.4166666666666666  0.2757772228311385  0.0000000000000000
  0.4166666666666666  0.4757772228311385  0.0000000000000000
  0.4166666666666666  0.6757772228311385  0.0000000000000000
  0.4166666666666666  0.8757772228311386  0.0000000000000000
  0.4722166666666667  0.0757772228311385  0.0000000000000000
  0.4722166666666667  0.2757772228311385  0.0000000000000000
  0.4722166666666667  0.4757772228311385  0.0000000000000000
  0.4722166666666667  0.6757772228311385  0.0000000000000000
  0.4722166666666667  0.8757772228311386  0.0000000000000000
  0.5000000000000000  0.0721687836487034  0.0000000000000000
  0.5000000000000000  0.2721687836487034  0.0000000000000000
  0.5000000000000000  0.4721687836487033  0.0000000000000000
  0.5000000000000000  0.6721687836487034  0.0000000000000000
  0.5000000000000000  0.8721687836487034  0.0000000000000000
  0.5555500000000000  0.0721687836487034  0.0000000000000000
  0.5555500000000000  0.2721687836487034  0.0000000000000000
  0.5555500000000000  0.4721687836487033  0.0000000000000000
  0.5555500000000000  0.6721687836487034  0.0000000000000000
  0.5555500000000000  0.8721687836487034  0.0000000000000000
  0.5833333333333334  0.0757772228311385  0.0000000000000000
  0.5833333333333334  0.2757772228311385  0.0000000000000000
  0.5833333333333334  0.4757772228311385  0.0000000000000000
  0.5833333333333334  0.6757772228311385  0.0000000000000000
  0.5833333333333334  0.8757772228311386  0.0000000000000000
  0.6388833333333332  0.0757772228311385  0.0000000000000000
  0.6388833333333332  0.2757772228311385  0.0000000000000000